     Program PWSCF v.6.2 starts on 10Jun2020 at  5:11:12

     R & G space division:  proc/nbgrp/npool/nimage =      16
     Waiting for input...
     Reading input from standard input
     Message from routine read_cards :
     DEPRECATED: no units specified in CELL_PARAMETERS card

     Current dimensions of program PWSCF are:
     Max number of different atomic species (ntypx) = 10
     Max number of k-points (npk) =  40000
     Max angular momentum in pseudopotentials (lmaxx) =  3

     bravais-lattice index     =            0
     lattice parameter (alat)  =       1.8897  a.u.
     unit-cell volume          =     304.2860 (a.u.)^3
     number of atoms/cell      =            2
     number of atomic types    =            1
     number of electrons       =         8.00
     number of Kohn-Sham states=            8
     kinetic-energy cutoff     =      50.0000  Ry
     charge density cutoff     =     200.0000  Ry
     convergence threshold     =      1.0E-06
     mixing beta               =       0.7000
     number of iterations used =            8  plain     mixing
     Exchange-correlation      =  SLA  PW   PBX  PBC ( 1  4  3  4 0 0)

     celldm(1)=   1.889726  celldm(2)=   0.000000  celldm(3)=   0.000000
     celldm(4)=   0.000000  celldm(5)=   0.000000  celldm(6)=   0.000000

     crystal axes: (cart. coord. in units of alat)
               a(1) = (   0.000000   2.825000   2.825000 )
               a(2) = (   2.825000   0.000000   2.825000 )
               a(3) = (   2.825000   2.825000   0.000000 )

     reciprocal axes: (cart. coord. in units 2 pi/alat)
               b(1) = ( -0.176991  0.176991  0.176991 )
               b(2) = (  0.176991 -0.176991  0.176991 )
               b(3) = (  0.176991  0.176991 -0.176991 )

     PseudoPot. # 1 for Ge read from file:
     /shared/ESPRESSO/PSLIBRARY/1.0.0/pbe/PSEUDOPOTENTIALS/Ge.pbe-n-kjpaw_psl.1.0.0.UPF
     MD5 check sum: e6063357164f7ec107b9a3d2bf12fbbf
     Pseudo is Projector augmented-wave + core cor, Zval =  4.0
     Generated using "atomic" code by A. Dal Corso  (Quantum ESPRESSO distribution)
     Shape of augmentation charge: PSQ
     Using radial grid of 1207 points,  4 beta functions with:
                l(1) =   0
                l(2) =   0
                l(3) =   1
                l(4) =   1
     Q(r) pseudized with 0 coefficients

     atomic species   valence    mass     pseudopotential
        Ge             4.00    72.63000     Ge( 1.00)

     48 Sym. Ops., with inversion, found (24 have fractional translation)

   Cartesian axes

     site n.     atom                  positions (alat units)
         1           Ge  tau(   1) = (   0.0000000   0.0000000   0.0000000  )
         2           Ge  tau(   2) = (   1.4125000   1.4125000   1.4125000  )

     number of k points=    84  Fermi-Dirac smearing, width (Ry)=  0.0070
                       cart. coord. in units 2pi/alat
        k(    1) = (   0.0000000   0.0000000   0.0000000), wk =   0.0009103
        k(    2) = (   0.0136147   0.0136147  -0.0136147), wk =   0.0072827
        k(    3) = (   0.0272294   0.0272294  -0.0272294), wk =   0.0072827
        k(    4) = (   0.0408441   0.0408441  -0.0408441), wk =   0.0072827
        k(    5) = (   0.0544588   0.0544588  -0.0544588), wk =   0.0072827
        k(    6) = (   0.0680735   0.0680735  -0.0680735), wk =   0.0072827
        k(    7) = (   0.0816882   0.0816882  -0.0816882), wk =   0.0072827
        k(    8) = (   0.0272294   0.0000000   0.0000000), wk =   0.0054620
        k(    9) = (   0.0408441   0.0136147  -0.0136147), wk =   0.0218480
        k(   10) = (   0.0544588   0.0272294  -0.0272294), wk =   0.0218480
        k(   11) = (   0.0680735   0.0408441  -0.0408441), wk =   0.0218480
        k(   12) = (   0.0816882   0.0544588  -0.0544588), wk =   0.0218480
        k(   13) = (   0.0953029   0.0680735  -0.0680735), wk =   0.0218480
        k(   14) = (  -0.0680735  -0.0953029   0.0953029), wk =   0.0218480
        k(   15) = (  -0.0544588  -0.0816882   0.0816882), wk =   0.0218480
        k(   16) = (  -0.0408441  -0.0680735   0.0680735), wk =   0.0218480
        k(   17) = (  -0.0272294  -0.0544588   0.0544588), wk =   0.0218480
        k(   18) = (  -0.0136147  -0.0408441   0.0408441), wk =   0.0218480
        k(   19) = (   0.0000000  -0.0272294   0.0272294), wk =   0.0109240
        k(   20) = (   0.0544588   0.0000000   0.0000000), wk =   0.0054620
        k(   21) = (   0.0680735   0.0136147  -0.0136147), wk =   0.0218480
        k(   22) = (   0.0816882   0.0272294  -0.0272294), wk =   0.0218480
        k(   23) = (   0.0953029   0.0408441  -0.0408441), wk =   0.0218480
        k(   24) = (   0.1089176   0.0544588  -0.0544588), wk =   0.0218480
        k(   25) = (  -0.0544588  -0.1089176   0.1089176), wk =   0.0218480
        k(   26) = (  -0.0408441  -0.0953029   0.0953029), wk =   0.0218480
        k(   27) = (  -0.0272294  -0.0816882   0.0816882), wk =   0.0218480
        k(   28) = (  -0.0136147  -0.0680735   0.0680735), wk =   0.0218480
        k(   29) = (   0.0000000  -0.0544588   0.0544588), wk =   0.0109240
        k(   30) = (   0.0816882   0.0000000   0.0000000), wk =   0.0054620
        k(   31) = (   0.0953029   0.0136147  -0.0136147), wk =   0.0218480
        k(   32) = (   0.1089176   0.0272294  -0.0272294), wk =   0.0218480
        k(   33) = (   0.1225323   0.0408441  -0.0408441), wk =   0.0218480
        k(   34) = (  -0.0408441  -0.1225323   0.1225323), wk =   0.0218480
        k(   35) = (  -0.0272294  -0.1089176   0.1089176), wk =   0.0218480
        k(   36) = (  -0.0136147  -0.0953029   0.0953029), wk =   0.0218480
        k(   37) = (   0.0000000  -0.0816882   0.0816882), wk =   0.0109240
        k(   38) = (   0.1089176   0.0000000   0.0000000), wk =   0.0054620
        k(   39) = (   0.1225323   0.0136147  -0.0136147), wk =   0.0218480
        k(   40) = (   0.1361470   0.0272294  -0.0272294), wk =   0.0218480
        k(   41) = (  -0.0272294  -0.1361470   0.1361470), wk =   0.0218480
        k(   42) = (  -0.0136147  -0.1225323   0.1225323), wk =   0.0218480
        k(   43) = (   0.0000000  -0.1089176   0.1089176), wk =   0.0109240
        k(   44) = (   0.1361470   0.0000000   0.0000000), wk =   0.0054620
        k(   45) = (   0.1497617   0.0136147  -0.0136147), wk =   0.0218480
        k(   46) = (  -0.0136147  -0.1497617   0.1497617), wk =   0.0218480
        k(   47) = (   0.0000000  -0.1361470   0.1361470), wk =   0.0109240
        k(   48) = (   0.1633764   0.0000000   0.0000000), wk =   0.0054620
        k(   49) = (   0.0000000  -0.1633764   0.1633764), wk =   0.0109240
        k(   50) = (   0.0544588   0.0272294   0.0000000), wk =   0.0218480
        k(   51) = (   0.0680735   0.0408441  -0.0136147), wk =   0.0436959
        k(   52) = (   0.0816882   0.0544588  -0.0272294), wk =   0.0436959
        k(   53) = (   0.0953029   0.0680735  -0.0408441), wk =   0.0436959
        k(   54) = (  -0.0680735  -0.0953029   0.1225323), wk =   0.0436959
        k(   55) = (   0.0816882   0.0272294   0.0000000), wk =   0.0218480
        k(   56) = (   0.0953029   0.0408441  -0.0136147), wk =   0.0436959
        k(   57) = (   0.1089176   0.0544588  -0.0272294), wk =   0.0436959
        k(   58) = (  -0.0544588  -0.1089176   0.1361470), wk =   0.0436959
        k(   59) = (  -0.0408441  -0.0953029   0.1225323), wk =   0.0436959
        k(   60) = (  -0.0272294  -0.0816882   0.1089176), wk =   0.0436959
[...]
        k(   70) = (  -0.0272294  -0.1361470   0.1633764), wk =   0.0436959
        k(   71) = (  -0.0136147  -0.1225323   0.1497617), wk =   0.0436959
        k(   72) = (   0.0000000  -0.1089176   0.1361470), wk =   0.0218480
        k(   73) = (  -0.0136147  -0.1497617   0.1769912), wk =   0.0218480
        k(   74) = (   0.0000000  -0.1361470   0.1633764), wk =   0.0218480
        k(   75) = (   0.1089176   0.0544588   0.0000000), wk =   0.0218480
        k(   76) = (  -0.0544588  -0.1089176   0.1633764), wk =   0.0436959
        k(   77) = (  -0.0408441  -0.0953029   0.1497617), wk =   0.0436959
        k(   78) = (  -0.0408441  -0.1225323   0.1769912), wk =   0.0218480
        k(   79) = (  -0.0272294  -0.1089176   0.1633764), wk =   0.0436959
        k(   80) = (  -0.0136147  -0.0953029   0.1497617), wk =   0.0436959
        k(   81) = (   0.0000000  -0.0816882   0.1361470), wk =   0.0218480
        k(   82) = (  -0.0136147  -0.1225323   0.1769912), wk =   0.0218480
        k(   83) = (   0.0000000  -0.1089176   0.1633764), wk =   0.0218480
        k(   84) = (  -0.0136147  -0.0953029   0.1769912), wk =   0.0218480

     Initial potential from superposition of free atoms

     starting charge    7.99847, renormalised to    8.00000
     Starting wfc are    8 randomized atomic wfcs
     Checking if some PAW data can be deallocated...

     Self-consistent Calculation

     iteration #  1     ecut=    50.00 Ry     beta= 0.70
     Davidson diagonalization with overlap
     ethr =  1.00E-02,  avg # of iterations =  3.0

     Threshold (ethr) on eigenvalues was too large:
     Diagonalizing with lowered threshold

     Davidson diagonalization with overlap
     ethr =  3.97E-04,  avg # of iterations =  1.8

     total energy              =    -328.23395873 Ry
     Harris-Foulkes estimate   =    -328.23997019 Ry
     estimated scf accuracy    <       0.03192909 Ry

[...]

     total energy              =    -328.23483797 Ry
     Harris-Foulkes estimate   =    -328.23483393 Ry
     estimated scf accuracy    <       0.00001693 Ry

     iteration #  4     ecut=    50.00 Ry     beta= 0.70
     Davidson diagonalization with overlap
     ethr =  2.12E-07,  avg # of iterations =  2.4

     End of self-consistent calculation

          k = 0.0000 0.0000 0.0000 (  1837 PWs)   bands (ev):

    -6.9227   5.8442   5.8442   5.8442   6.0181   8.4244   8.4244   8.4244

[...]

          k =-0.0681-0.0953 0.0953 (  1818 PWs)   bands (ev):

[...]

          k = 0.0000-0.1089 0.1634 (  1810 PWs)   bands (ev):

[...]

          k =-0.0136-0.0953 0.1770 (  1810 PWs)   bands (ev):

    -3.3296  -2.5733   1.7551   2.2117   9.9077   9.9326  10.3711  11.5980

     the Fermi energy is     5.9527 ev

!    total energy              =    -328.23484132 Ry
     Harris-Foulkes estimate   =    -328.23484116 Ry
     estimated scf accuracy    <       0.00000012 Ry

     total all-electron energy =     -8395.999609 Ry

     The total energy is the sum of the following terms:

     one-electron contribution =       5.57632658 Ry
     hartree contribution      =       1.14892539 Ry
     xc contribution           =     -13.27342737 Ry
     ewald contribution        =     -16.14482554 Ry
     one-center paw contrib.   =    -305.54171802 Ry
     smearing contrib. (-TS)   =      -0.00012236 Ry

     convergence has been achieved in   4 iterations

     Writing output data file scf.save

     General routines

     Parallel routines

   This run was terminated on:   5:14: 0  10Jun2020

   JOB DONE.