     Program PWSCF v.6.2 starts on 15Sep2020 at 18:20: 3

     R & G space division:  proc/nbgrp/npool/nimage =      16
     Waiting for input...
     Reading input from standard input

     Current dimensions of program PWSCF are:
     Max number of different atomic species (ntypx) = 10
     Max number of k-points (npk) =  40000
     Max angular momentum in pseudopotentials (lmaxx) =  3
     Message from routine iosys:
     minimal I/O required, wf_collect reset to FALSE

     bravais-lattice index     =            0
     lattice parameter (alat)  =       1.8897  a.u.
     unit-cell volume          =     305.9045 (a.u.)^3
     number of atoms/cell      =            2
     number of atomic types    =            1
     number of electrons       =         8.00
     number of Kohn-Sham states=            8
     kinetic-energy cutoff     =      40.0000  Ry
     charge density cutoff     =     200.0000  Ry
     convergence threshold     =      1.0E-06
     mixing beta               =       0.7000
     number of iterations used =            8  plain     mixing
     Exchange-correlation      =  SLA  PW   PBX  PBC ( 1  4  3  4 0 0)

     celldm(1)=   1.889726  celldm(2)=   0.000000  celldm(3)=   0.000000
     celldm(4)=   0.000000  celldm(5)=   0.000000  celldm(6)=   0.000000

     crystal axes: (cart. coord. in units of alat)
               a(1) = (   0.000000   2.830000   2.830000 )
               a(2) = (   2.830000   0.000000   2.830000 )
               a(3) = (   2.830000   2.830000   0.000000 )

     reciprocal axes: (cart. coord. in units 2 pi/alat)
               b(1) = ( -0.176678  0.176678  0.176678 )
               b(2) = (  0.176678 -0.176678  0.176678 )
               b(3) = (  0.176678  0.176678 -0.176678 )

     PseudoPot. # 1 for Ge read from file:
     /shared/ESPRESSO/PSLIBRARY/1.0.0/pbe/PSEUDOPOTENTIALS/Ge.pbe-n-kjpaw_psl.1.0.0.UPF
     MD5 check sum: e6063357164f7ec107b9a3d2bf12fbbf
     Pseudo is Projector augmented-wave + core cor, Zval =  4.0
     Generated using "atomic" code by A. Dal Corso  (Quantum ESPRESSO distribution)
     Shape of augmentation charge: PSQ
     Using radial grid of 1207 points,  4 beta functions with:
                l(1) =   0
                l(2) =   0
                l(3) =   1
                l(4) =   1
     Q(r) pseudized with 0 coefficients

     atomic species   valence    mass     pseudopotential
        Ge             4.00    72.63000     Ge( 1.00)

     48 Sym. Ops., with inversion, found (24 have fractional translation)

   Cartesian axes

     site n.     atom                  positions (alat units)
         1           Ge  tau(   1) = (   0.0000000   0.0000000   0.0000000  )
         2           Ge  tau(   2) = (   1.4150000   1.4150000   1.4150000  )

     number of k points=    84  Fermi-Dirac smearing, width (Ry)=  0.0070
                       cart. coord. in units 2pi/alat
        k(    1) = (   0.0000000   0.0000000   0.0000000), wk =   0.0009103
        k(    2) = (   0.0135906   0.0135906  -0.0135906), wk =   0.0072827
        k(    3) = (   0.0271813   0.0271813  -0.0271813), wk =   0.0072827
        k(    4) = (   0.0407719   0.0407719  -0.0407719), wk =   0.0072827
        k(    5) = (   0.0543626   0.0543626  -0.0543626), wk =   0.0072827
        k(    6) = (   0.0679532   0.0679532  -0.0679532), wk =   0.0072827
        k(    7) = (   0.0815439   0.0815439  -0.0815439), wk =   0.0072827
        k(    8) = (   0.0271813   0.0000000   0.0000000), wk =   0.0054620
        k(    9) = (   0.0407719   0.0135906  -0.0135906), wk =   0.0218480
        k(   10) = (   0.0543626   0.0271813  -0.0271813), wk =   0.0218480
        k(   11) = (   0.0679532   0.0407719  -0.0407719), wk =   0.0218480
        k(   12) = (   0.0815439   0.0543626  -0.0543626), wk =   0.0218480
        k(   13) = (   0.0951345   0.0679532  -0.0679532), wk =   0.0218480
        k(   14) = (  -0.0679532  -0.0951345   0.0951345), wk =   0.0218480
        k(   15) = (  -0.0543626  -0.0815439   0.0815439), wk =   0.0218480
        k(   16) = (  -0.0407719  -0.0679532   0.0679532), wk =   0.0218480
        k(   17) = (  -0.0271813  -0.0543626   0.0543626), wk =   0.0218480
        k(   18) = (  -0.0135906  -0.0407719   0.0407719), wk =   0.0218480
        k(   19) = (   0.0000000  -0.0271813   0.0271813), wk =   0.0109240
        k(   20) = (   0.0543626   0.0000000   0.0000000), wk =   0.0054620
        k(   21) = (   0.0679532   0.0135906  -0.0135906), wk =   0.0218480
        k(   22) = (   0.0815439   0.0271813  -0.0271813), wk =   0.0218480
        k(   23) = (   0.0951345   0.0407719  -0.0407719), wk =   0.0218480
        k(   24) = (   0.1087252   0.0543626  -0.0543626), wk =   0.0218480
        k(   25) = (  -0.0543626  -0.1087252   0.1087252), wk =   0.0218480
        k(   26) = (  -0.0407719  -0.0951345   0.0951345), wk =   0.0218480
        k(   27) = (  -0.0271813  -0.0815439   0.0815439), wk =   0.0218480
        k(   28) = (  -0.0135906  -0.0679532   0.0679532), wk =   0.0218480
        k(   29) = (   0.0000000  -0.0543626   0.0543626), wk =   0.0109240
        k(   30) = (   0.0815439   0.0000000   0.0000000), wk =   0.0054620
        k(   31) = (   0.0951345   0.0135906  -0.0135906), wk =   0.0218480
        k(   32) = (   0.1087252   0.0271813  -0.0271813), wk =   0.0218480
        k(   33) = (   0.1223158   0.0407719  -0.0407719), wk =   0.0218480
        k(   34) = (  -0.0407719  -0.1223158   0.1223158), wk =   0.0218480
        k(   35) = (  -0.0271813  -0.1087252   0.1087252), wk =   0.0218480
        k(   36) = (  -0.0135906  -0.0951345   0.0951345), wk =   0.0218480
        k(   37) = (   0.0000000  -0.0815439   0.0815439), wk =   0.0109240
        k(   38) = (   0.1087252   0.0000000   0.0000000), wk =   0.0054620
        k(   39) = (   0.1223158   0.0135906  -0.0135906), wk =   0.0218480
        k(   40) = (   0.1359065   0.0271813  -0.0271813), wk =   0.0218480
        k(   41) = (  -0.0271813  -0.1359065   0.1359065), wk =   0.0218480
        k(   42) = (  -0.0135906  -0.1223158   0.1223158), wk =   0.0218480
        k(   43) = (   0.0000000  -0.1087252   0.1087252), wk =   0.0109240
        k(   44) = (   0.1359065   0.0000000   0.0000000), wk =   0.0054620
        k(   45) = (   0.1494971   0.0135906  -0.0135906), wk =   0.0218480
        k(   46) = (  -0.0135906  -0.1494971   0.1494971), wk =   0.0218480
        k(   47) = (   0.0000000  -0.1359065   0.1359065), wk =   0.0109240
        k(   48) = (   0.1630878   0.0000000   0.0000000), wk =   0.0054620
        k(   49) = (   0.0000000  -0.1630878   0.1630878), wk =   0.0109240
        k(   50) = (   0.0543626   0.0271813   0.0000000), wk =   0.0218480
        k(   51) = (   0.0679532   0.0407719  -0.0135906), wk =   0.0436959
        k(   52) = (   0.0815439   0.0543626  -0.0271813), wk =   0.0436959
        k(   53) = (   0.0951345   0.0679532  -0.0407719), wk =   0.0436959
        k(   54) = (  -0.0679532  -0.0951345   0.1223158), wk =   0.0436959
        k(   55) = (   0.0815439   0.0271813   0.0000000), wk =   0.0218480
        k(   56) = (   0.0951345   0.0407719  -0.0135906), wk =   0.0436959
        k(   57) = (   0.1087252   0.0543626  -0.0271813), wk =   0.0436959
        k(   58) = (  -0.0543626  -0.1087252   0.1359065), wk =   0.0436959
        k(   59) = (  -0.0407719  -0.0951345   0.1223158), wk =   0.0436959
        k(   60) = (  -0.0271813  -0.0815439   0.1087252), wk =   0.0436959
[...]
        k(   70) = (  -0.0271813  -0.1359065   0.1630878), wk =   0.0436959
        k(   71) = (  -0.0135906  -0.1223158   0.1494971), wk =   0.0436959
        k(   72) = (   0.0000000  -0.1087252   0.1359065), wk =   0.0218480
        k(   73) = (  -0.0135906  -0.1494971   0.1766784), wk =   0.0218480
        k(   74) = (   0.0000000  -0.1359065   0.1630878), wk =   0.0218480
        k(   75) = (   0.1087252   0.0543626   0.0000000), wk =   0.0218480
        k(   76) = (  -0.0543626  -0.1087252   0.1630878), wk =   0.0436959
        k(   77) = (  -0.0407719  -0.0951345   0.1494971), wk =   0.0436959
        k(   78) = (  -0.0407719  -0.1223158   0.1766784), wk =   0.0218480
        k(   79) = (  -0.0271813  -0.1087252   0.1630878), wk =   0.0436959
        k(   80) = (  -0.0135906  -0.0951345   0.1494971), wk =   0.0436959
        k(   81) = (   0.0000000  -0.0815439   0.1359065), wk =   0.0218480
        k(   82) = (  -0.0135906  -0.1223158   0.1766784), wk =   0.0218480
        k(   83) = (   0.0000000  -0.1087252   0.1630878), wk =   0.0218480
        k(   84) = (  -0.0135906  -0.0951345   0.1766784), wk =   0.0218480

     Initial potential from superposition of free atoms

     starting charge    7.99847, renormalised to    8.00000
     Starting wfc are    8 randomized atomic wfcs
     Checking if some PAW data can be deallocated...

     Self-consistent Calculation

     iteration #  1     ecut=    40.00 Ry     beta= 0.70
     Davidson diagonalization with overlap
     ethr =  1.00E-02,  avg # of iterations =  3.0

     Threshold (ethr) on eigenvalues was too large:
     Diagonalizing with lowered threshold

     Davidson diagonalization with overlap
     ethr =  3.95E-04,  avg # of iterations =  1.8

     total energy              =    -328.23431618 Ry
     Harris-Foulkes estimate   =    -328.24020823 Ry
     estimated scf accuracy    <       0.03163342 Ry

[...]

     total energy              =    -328.23517185 Ry
     Harris-Foulkes estimate   =    -328.23516794 Ry
     estimated scf accuracy    <       0.00001638 Ry

     iteration #  4     ecut=    40.00 Ry     beta= 0.70
     Davidson diagonalization with overlap
     ethr =  2.05E-07,  avg # of iterations =  2.4

     End of self-consistent calculation

          k = 0.0000 0.0000 0.0000 (  1291 PWs)   bands (ev):

    -6.9383   5.7885   5.7885   5.7885   5.9121   8.3660   8.3660   8.3660

[...]

          k =-0.0680-0.0951 0.0951 (  1314 PWs)   bands (ev):

[...]

          k = 0.0000-0.1087 0.1631 (  1292 PWs)   bands (ev):

[...]

          k =-0.0136-0.0951 0.1767 (  1305 PWs)   bands (ev):

    -3.3649  -2.6122   1.7255   2.1794   9.8400   9.8559  10.3121  11.5250

     the Fermi energy is     5.8886 ev

!    total energy              =    -328.23517516 Ry
     Harris-Foulkes estimate   =    -328.23517500 Ry
     estimated scf accuracy    <       0.00000011 Ry

     total all-electron energy =     -8395.999943 Ry

     The total energy is the sum of the following terms:

     one-electron contribution =       5.53493461 Ry
     hartree contribution      =       1.15416328 Ry
     xc contribution           =     -13.26732451 Ry
     ewald contribution        =     -16.11630111 Ry
     one-center paw contrib.   =    -305.54051908 Ry
     smearing contrib. (-TS)   =      -0.00012835 Ry

     convergence has been achieved in   4 iterations

     Forces acting on atoms (cartesian axes, Ry/au):

     atom    1 type  1   force =     0.00000000    0.00000000    0.00000000
     atom    2 type  1   force =     0.00000000    0.00000000    0.00000000

     Total force =     0.000000     Total SCF correction =     0.000000

     Computing stress (Cartesian axis) and pressure

          total   stress  (Ry/bohr**3)                   (kbar)     P=   39.60
   0.00026919   0.00000000   0.00000000         39.60      0.00      0.00
   0.00000000   0.00026919   0.00000000          0.00     39.60      0.00
   0.00000000   0.00000000   0.00026919          0.00      0.00     39.60

     General routines

     Parallel routines

   This run was terminated on:  18:20: 7  15Sep2020

   JOB DONE.