     Program PWSCF v.6.2 starts on 15Sep2020 at 21:34:57

     R & G space division:  proc/nbgrp/npool/nimage =      16
     Waiting for input...
     Reading input from standard input

     Current dimensions of program PWSCF are:
     Max number of different atomic species (ntypx) = 10
     Max number of k-points (npk) =  40000
     Max angular momentum in pseudopotentials (lmaxx) =  3

     WARNING: hubbard_l =  1 is set

[...]

     WARNING: hubbard_n =  4 is set

[...]

     bravais-lattice index     =            0
     lattice parameter (alat)  =       1.8897  a.u.
     unit-cell volume          =     314.0834 (a.u.)^3
     number of atoms/cell      =            2
     number of atomic types    =            1
     number of electrons       =         8.00
     number of Kohn-Sham states=            7
     kinetic-energy cutoff     =      40.0000  Ry
     charge density cutoff     =     160.0000  Ry
     convergence threshold     =      1.0E-06
     mixing beta               =       0.7000
     number of iterations used =            8  plain     mixing
     Exchange-correlation      =  SLA  PW   PBX  PBC ( 1  4  3  4 0 0)

     celldm(1)=   1.889726  celldm(2)=   0.000000  celldm(3)=   0.000000
     celldm(4)=   0.000000  celldm(5)=   0.000000  celldm(6)=   0.000000

     crystal axes: (cart. coord. in units of alat)
               a(1) = (   0.000000   2.855000   2.855000 )
               a(2) = (   2.855000   0.000000   2.855000 )
               a(3) = (   2.855000   2.855000   0.000000 )

     reciprocal axes: (cart. coord. in units 2 pi/alat)
               b(1) = ( -0.175131  0.175131  0.175131 )
               b(2) = (  0.175131 -0.175131  0.175131 )
               b(3) = (  0.175131  0.175131 -0.175131 )

     PseudoPot. # 1 for Ge read from file:
     /shared/ESPRESSO/PSLIBRARY/1.0.0/pbe/PSEUDOPOTENTIALS/Ge.pbe-n-kjpaw_psl.1.0.0.UPF
     MD5 check sum: e6063357164f7ec107b9a3d2bf12fbbf
     Pseudo is Projector augmented-wave + core cor, Zval =  4.0
     Generated using "atomic" code by A. Dal Corso  (Quantum ESPRESSO distribution)
     Shape of augmentation charge: PSQ
     Using radial grid of 1207 points,  4 beta functions with:
                l(1) =   0
                l(2) =   0
                l(3) =   1
                l(4) =   1
     Q(r) pseudized with 0 coefficients

     atomic species   valence    mass     pseudopotential
        Ge             4.00    72.64000     Ge( 1.00)

     Simplified LDA+U calculation (l_max = 1) with parameters (eV):
     atomic species    L          U    alpha       J0     beta
        Ge             1     1.6000   0.0000   0.0000   0.0000

     48 Sym. Ops., with inversion, found (24 have fractional translation)

   Cartesian axes

     site n.     atom                  positions (alat units)
         1           Ge  tau(   1) = (   0.0000000   0.0000000   0.0000000  )
         2           Ge  tau(   2) = (   1.4275000   1.4275000   1.4275000  )

     number of k points=    72  Fermi-Dirac smearing, width (Ry)=  0.0070
                       cart. coord. in units 2pi/alat
        k(    1) = (   0.0000000   0.0000000   0.0000000), wk =   0.0011574
        k(    2) = (   0.0145943   0.0145943  -0.0145943), wk =   0.0092593
        k(    3) = (   0.0291886   0.0291886  -0.0291886), wk =   0.0092593
        k(    4) = (   0.0437828   0.0437828  -0.0437828), wk =   0.0092593
        k(    5) = (   0.0583771   0.0583771  -0.0583771), wk =   0.0092593
        k(    6) = (   0.0729714   0.0729714  -0.0729714), wk =   0.0092593
        k(    7) = (  -0.0875657  -0.0875657   0.0875657), wk =   0.0046296
        k(    8) = (   0.0291886   0.0000000   0.0000000), wk =   0.0069444
        k(    9) = (   0.0437828   0.0145943  -0.0145943), wk =   0.0277778
        k(   10) = (   0.0583771   0.0291886  -0.0291886), wk =   0.0277778
        k(   11) = (   0.0729714   0.0437828  -0.0437828), wk =   0.0277778
        k(   12) = (   0.0875657   0.0583771  -0.0583771), wk =   0.0277778
        k(   13) = (  -0.0729714  -0.1021600   0.1021600), wk =   0.0277778
        k(   14) = (  -0.0583771  -0.0875657   0.0875657), wk =   0.0277778
        k(   15) = (  -0.0437828  -0.0729714   0.0729714), wk =   0.0277778
        k(   16) = (  -0.0291886  -0.0583771   0.0583771), wk =   0.0277778
        k(   17) = (  -0.0145943  -0.0437828   0.0437828), wk =   0.0277778
        k(   18) = (   0.0000000  -0.0291886   0.0291886), wk =   0.0138889
        k(   19) = (   0.0583771   0.0000000   0.0000000), wk =   0.0069444
        k(   20) = (   0.0729714   0.0145943  -0.0145943), wk =   0.0277778
        k(   21) = (   0.0875657   0.0291886  -0.0291886), wk =   0.0277778
        k(   22) = (   0.1021600   0.0437828  -0.0437828), wk =   0.0277778
        k(   23) = (  -0.0583771  -0.1167542   0.1167542), wk =   0.0277778
        k(   24) = (  -0.0437828  -0.1021600   0.1021600), wk =   0.0277778
        k(   25) = (  -0.0291886  -0.0875657   0.0875657), wk =   0.0277778
        k(   26) = (  -0.0145943  -0.0729714   0.0729714), wk =   0.0277778
        k(   27) = (   0.0000000  -0.0583771   0.0583771), wk =   0.0138889
        k(   28) = (   0.0875657   0.0000000   0.0000000), wk =   0.0069444
        k(   29) = (   0.1021600   0.0145943  -0.0145943), wk =   0.0277778
        k(   30) = (   0.1167542   0.0291886  -0.0291886), wk =   0.0277778
        k(   31) = (  -0.0437828  -0.1313485   0.1313485), wk =   0.0277778
        k(   32) = (  -0.0291886  -0.1167542   0.1167542), wk =   0.0277778
        k(   33) = (  -0.0145943  -0.1021600   0.1021600), wk =   0.0277778
        k(   34) = (   0.0000000  -0.0875657   0.0875657), wk =   0.0138889
        k(   35) = (   0.1167542   0.0000000   0.0000000), wk =   0.0069444
        k(   36) = (   0.1313485   0.0145943  -0.0145943), wk =   0.0277778
        k(   37) = (  -0.0291886  -0.1459428   0.1459428), wk =   0.0277778
        k(   38) = (  -0.0145943  -0.1313485   0.1313485), wk =   0.0277778
        k(   39) = (   0.0000000  -0.1167542   0.1167542), wk =   0.0138889
        k(   40) = (   0.1459428   0.0000000   0.0000000), wk =   0.0069444
        k(   41) = (  -0.0145943  -0.1605371   0.1605371), wk =   0.0277778
        k(   42) = (   0.0000000  -0.1459428   0.1459428), wk =   0.0138889
        k(   43) = (  -0.1751313   0.0000000   0.0000000), wk =   0.0034722
        k(   44) = (   0.0583771   0.0291886   0.0000000), wk =   0.0277778
        k(   45) = (   0.0729714   0.0437828  -0.0145943), wk =   0.0555556
        k(   46) = (   0.0875657   0.0583771  -0.0291886), wk =   0.0555556
        k(   47) = (  -0.0729714  -0.1021600   0.1313485), wk =   0.0555556
        k(   48) = (  -0.0583771  -0.0875657   0.1167542), wk =   0.0277778
        k(   49) = (   0.0875657   0.0291886   0.0000000), wk =   0.0277778
        k(   50) = (   0.1021600   0.0437828  -0.0145943), wk =   0.0555556
        k(   51) = (  -0.0583771  -0.1167542   0.1459428), wk =   0.0555556
        k(   52) = (  -0.0437828  -0.1021600   0.1313485), wk =   0.0555556
        k(   53) = (  -0.0291886  -0.0875657   0.1167542), wk =   0.0555556
        k(   54) = (  -0.0145943  -0.0729714   0.1021600), wk =   0.0555556
        k(   55) = (   0.0000000  -0.0583771   0.0875657), wk =   0.0277778
        k(   56) = (   0.1167542   0.0291886   0.0000000), wk =   0.0277778
        k(   57) = (  -0.0437828  -0.1313485   0.1605371), wk =   0.0555556
        k(   58) = (  -0.0291886  -0.1167542   0.1459428), wk =   0.0555556
        k(   59) = (  -0.0145943  -0.1021600   0.1313485), wk =   0.0555556
        k(   60) = (   0.0000000  -0.0875657   0.1167542), wk =   0.0277778
        k(   61) = (  -0.0291886  -0.1459428   0.1751313), wk =   0.0277778
        k(   62) = (  -0.0145943  -0.1313485   0.1605371), wk =   0.0555556
        k(   63) = (   0.0000000  -0.1167542   0.1459428), wk =   0.0277778
        k(   64) = (  -0.1751313   0.0291886   0.0000000), wk =   0.0138889
        k(   65) = (  -0.0583771  -0.1167542   0.1751313), wk =   0.0277778
        k(   66) = (  -0.0437828  -0.1021600   0.1605371), wk =   0.0555556
        k(   67) = (  -0.0291886  -0.0875657   0.1459428), wk =   0.0277778
        k(   68) = (  -0.0291886  -0.1167542   0.1751313), wk =   0.0277778
        k(   69) = (  -0.0145943  -0.1021600   0.1605371), wk =   0.0555556
        k(   70) = (   0.0000000  -0.0875657   0.1459428), wk =   0.0277778
        k(   71) = (  -0.1751313   0.0583771   0.0000000), wk =   0.0138889
        k(   72) = (  -0.1751313   0.0875657   0.0000000), wk =   0.0069444

     Initial potential from superposition of free atoms

     WARNING: hubbard_occ =  2.d0 is set

     WARNING: Use as own risk.

     WARNING: hubbard_occ =  2.d0 is set

     WARNING: Use as own risk.

     starting charge    7.99847, renormalised to    8.00000
     Number of +U iterations with fixed ns =  0
     Starting occupations:
 --- enter write_ns ---
 LDA+U parameters:
U( 1)     =  1.60000000
alpha( 1) =  0.00000000
atom    1   Tr[ns(na)] =   2.00000
    eigenvalues:
  0.333  0.333  0.333
    eigenvectors:
  1.000  0.000  0.000
  0.000  1.000  0.000
  0.000  0.000  1.000
    occupations:
  0.333  0.000  0.000
  0.000  0.333  0.000
  0.000  0.000  0.333
atom    2   Tr[ns(na)] =   2.00000
    eigenvalues:
  0.333  0.333  0.333
    eigenvectors:
  1.000  0.000  0.000
  0.000  1.000  0.000
  0.000  0.000  1.000
    occupations:
  0.333  0.000  0.000
  0.000  0.333  0.000
  0.000  0.000  0.333
N of occupied +U levels =    4.000000
 --- exit write_ns ---
 Atomic wfc used for LDA+U Projector are NOT orthogonalized
     Starting wfc are    8 randomized atomic wfcs
     Checking if some PAW data can be deallocated...

     Self-consistent Calculation

     iteration #  1     ecut=    40.00 Ry     beta= 0.70
     Davidson diagonalization with overlap
     ethr =  1.00E-02,  avg # of iterations =  2.9
 --- enter write_ns ---
 LDA+U parameters:
U( 1)     =  1.60000000
alpha( 1) =  0.00000000
atom    1   Tr[ns(na)] =   4.60172
    eigenvalues:
  0.767  0.767  0.767
    eigenvectors:
  0.209  0.272  0.519
  0.556  0.047  0.397
  0.234  0.682  0.084
    occupations:
  0.767  0.000  0.000
  0.000  0.767  0.000
  0.000  0.000  0.767
atom    2   Tr[ns(na)] =   4.60172
    eigenvalues:
  0.767  0.767  0.767
    eigenvectors:
  0.618  0.083  0.300
  0.353  0.011  0.635
  0.029  0.906  0.065
    occupations:
  0.767  0.000  0.000
  0.000  0.767  0.000
  0.000  0.000  0.767
N of occupied +U levels =    9.203442
 --- exit write_ns ---

     Threshold (ethr) on eigenvalues was too large:
     Diagonalizing with lowered threshold

     Davidson diagonalization with overlap
     ethr =  4.02E-04,  avg # of iterations =  2.2

     total energy              =    -328.10805720 Ry
     Harris-Foulkes estimate   =    -327.98180959 Ry
     estimated scf accuracy    <       0.03255402 Ry

     iteration #  2     ecut=    40.00 Ry     beta= 0.70
     Davidson diagonalization with overlap
     ethr =  4.07E-04,  avg # of iterations =  1.3

[...]

     total energy              =    -328.11664397 Ry
     Harris-Foulkes estimate   =    -328.11663215 Ry
     estimated scf accuracy    <       0.00011843 Ry

     iteration #  4     ecut=    40.00 Ry     beta= 0.70
     Davidson diagonalization with overlap
     ethr =  1.48E-06,  avg # of iterations =  2.8

     End of self-consistent calculation
 --- enter write_ns ---
 LDA+U parameters:
U( 1)     =  1.60000000
alpha( 1) =  0.00000000
atom    1   Tr[ns(na)] =   4.72391
    eigenvalues:
  0.787  0.787  0.787
    eigenvectors:
  0.221  0.254  0.525
  0.574  0.036  0.390
  0.205  0.710  0.085
    occupations:
  0.787  0.000  0.000
  0.000  0.787  0.000
  0.000  0.000  0.787
atom    2   Tr[ns(na)] =   4.72391
    eigenvalues:
  0.787  0.787  0.787
    eigenvectors:
  0.447  0.166  0.387
  0.470  0.000  0.529
  0.083  0.834  0.083
    occupations:
  0.787  0.000  0.000
  0.000  0.787  0.000
  0.000  0.000  0.787
N of occupied +U levels =    9.447810
 --- exit write_ns ---

          k = 0.0000 0.0000 0.0000 (  1363 PWs)   bands (ev):

    -7.0621   5.1774   5.1774   5.1774   5.3232   7.8598   7.8598

[...]

          k =-0.0876-0.0876 0.0876 (  1350 PWs)   bands (ev):

[...]

          k = 0.0000-0.0876 0.1459 (  1347 PWs)   bands (ev):

[...]

          k =-0.1751 0.0876 0.0000 (  1348 PWs)   bands (ev):

    -3.6013  -3.6013   0.9031   0.9031   9.6207   9.6209  10.1477

     the Fermi energy is     5.2452 ev

!    total energy              =    -328.11665197 Ry
     Harris-Foulkes estimate   =    -328.11665209 Ry
     estimated scf accuracy    <       0.00000058 Ry

     total all-electron energy =     -8395.881420 Ry

     The total energy is the sum of the following terms:

     one-electron contribution =       5.33047048 Ry
     hartree contribution      =       1.15547636 Ry
     xc contribution           =     -13.21855039 Ry
     ewald contribution        =     -15.97517763 Ry
     Hubbard energy            =       0.11814959 Ry
     one-center paw contrib.   =    -305.52686361 Ry
     smearing contrib. (-TS)   =      -0.00015678 Ry

     convergence has been achieved in   4 iterations

     Forces acting on atoms (cartesian axes, Ry/au):

     atom    1 type  1   force =     0.00000000    0.00000000    0.00000000
     atom    2 type  1   force =     0.00000000    0.00000000    0.00000000

     Total force =     0.000000     Total SCF correction =     0.000000

     Computing stress (Cartesian axis) and pressure

          total   stress  (Ry/bohr**3)                   (kbar)     P=  -27.19
  -0.00018481   0.00000000   0.00000000        -27.19      0.00      0.00
   0.00000000  -0.00018481   0.00000000          0.00    -27.19      0.00
   0.00000000   0.00000000  -0.00018481          0.00      0.00    -27.19

     Writing output data file scf.save

     WARNING: hubbard_l =  1 is set

     WARNING: hubbard_n =  4 is set

     General routines

     Parallel routines

     Hubbard U routines

   This run was terminated on:  21:39:55  15Sep2020

   JOB DONE.