     Program PWSCF v.6.2 starts on 15Sep2020 at 21:27:30

     R & G space division:  proc/nbgrp/npool/nimage =      16
     Waiting for input...
     Reading input from standard input

     Current dimensions of program PWSCF are:
     Max number of different atomic species (ntypx) = 10
     Max number of k-points (npk) =  40000
     Max angular momentum in pseudopotentials (lmaxx) =  3

     WARNING: hubbard_l =  1 is set

[...]

     WARNING: hubbard_n =  4 is set

[...]

     bravais-lattice index     =            0
     lattice parameter (alat)  =       1.8897  a.u.
     unit-cell volume          =     293.1158 (a.u.)^3
     number of atoms/cell      =            2
     number of atomic types    =            1
     number of electrons       =         8.00
     number of Kohn-Sham states=            7
     kinetic-energy cutoff     =      40.0000  Ry
     charge density cutoff     =     160.0000  Ry
     convergence threshold     =      1.0E-06
     mixing beta               =       0.7000
     number of iterations used =            8  plain     mixing
     Exchange-correlation      =  SLA  PW   PBX  PBC ( 1  4  3  4 0 0)

     celldm(1)=   1.889726  celldm(2)=   0.000000  celldm(3)=   0.000000
     celldm(4)=   0.000000  celldm(5)=   0.000000  celldm(6)=   0.000000

     crystal axes: (cart. coord. in units of alat)
               a(1) = (   0.000000   2.790000   2.790000 )
               a(2) = (   2.790000   0.000000   2.790000 )
               a(3) = (   2.790000   2.790000   0.000000 )

     reciprocal axes: (cart. coord. in units 2 pi/alat)
               b(1) = ( -0.179211  0.179211  0.179211 )
               b(2) = (  0.179211 -0.179211  0.179211 )
               b(3) = (  0.179211  0.179211 -0.179211 )

     PseudoPot. # 1 for Ge read from file:
     /shared/ESPRESSO/PSLIBRARY/1.0.0/pbe/PSEUDOPOTENTIALS/Ge.pbe-n-kjpaw_psl.1.0.0.UPF
     MD5 check sum: e6063357164f7ec107b9a3d2bf12fbbf
     Pseudo is Projector augmented-wave + core cor, Zval =  4.0
     Generated using "atomic" code by A. Dal Corso  (Quantum ESPRESSO distribution)
     Shape of augmentation charge: PSQ
     Using radial grid of 1207 points,  4 beta functions with:
                l(1) =   0
                l(2) =   0
                l(3) =   1
                l(4) =   1
     Q(r) pseudized with 0 coefficients

     atomic species   valence    mass     pseudopotential
        Ge             4.00    72.64000     Ge( 1.00)

     Simplified LDA+U calculation (l_max = 1) with parameters (eV):
     atomic species    L          U    alpha       J0     beta
        Ge             1     1.6000   0.0000   0.0000   0.0000

     24 Sym. Ops. (no inversion) found
          (note: 24 additional sym.ops. were found but ignored
           their fractional translations are incommensurate with FFT grid)

   Cartesian axes

     site n.     atom                  positions (alat units)
         1           Ge  tau(   1) = (   0.0000000   0.0000000   0.0000000  )
         2           Ge  tau(   2) = (   1.3950000   1.3950000   1.3950000  )

     number of k points=    72  Fermi-Dirac smearing, width (Ry)=  0.0070
                       cart. coord. in units 2pi/alat
        k(    1) = (   0.0000000   0.0000000   0.0000000), wk =   0.0011574
        k(    2) = (   0.0149343   0.0149343  -0.0149343), wk =   0.0092593
        k(    3) = (   0.0298686   0.0298686  -0.0298686), wk =   0.0092593
        k(    4) = (   0.0448029   0.0448029  -0.0448029), wk =   0.0092593
        k(    5) = (   0.0597372   0.0597372  -0.0597372), wk =   0.0092593
        k(    6) = (   0.0746714   0.0746714  -0.0746714), wk =   0.0092593
        k(    7) = (  -0.0896057  -0.0896057   0.0896057), wk =   0.0046296
        k(    8) = (   0.0298686   0.0000000   0.0000000), wk =   0.0069444
        k(    9) = (   0.0448029   0.0149343  -0.0149343), wk =   0.0277778
        k(   10) = (   0.0597372   0.0298686  -0.0298686), wk =   0.0277778
        k(   11) = (   0.0746714   0.0448029  -0.0448029), wk =   0.0277778
        k(   12) = (   0.0896057   0.0597372  -0.0597372), wk =   0.0277778
        k(   13) = (  -0.0746714  -0.1045400   0.1045400), wk =   0.0277778
        k(   14) = (  -0.0597372  -0.0896057   0.0896057), wk =   0.0277778
        k(   15) = (  -0.0448029  -0.0746714   0.0746714), wk =   0.0277778
        k(   16) = (  -0.0298686  -0.0597372   0.0597372), wk =   0.0277778
        k(   17) = (  -0.0149343  -0.0448029   0.0448029), wk =   0.0277778
        k(   18) = (   0.0000000  -0.0298686   0.0298686), wk =   0.0138889
        k(   19) = (   0.0597372   0.0000000   0.0000000), wk =   0.0069444
        k(   20) = (   0.0746714   0.0149343  -0.0149343), wk =   0.0277778
        k(   21) = (   0.0896057   0.0298686  -0.0298686), wk =   0.0277778
        k(   22) = (   0.1045400   0.0448029  -0.0448029), wk =   0.0277778
        k(   23) = (  -0.0597372  -0.1194743   0.1194743), wk =   0.0277778
        k(   24) = (  -0.0448029  -0.1045400   0.1045400), wk =   0.0277778
        k(   25) = (  -0.0298686  -0.0896057   0.0896057), wk =   0.0277778
        k(   26) = (  -0.0149343  -0.0746714   0.0746714), wk =   0.0277778
        k(   27) = (   0.0000000  -0.0597372   0.0597372), wk =   0.0138889
        k(   28) = (   0.0896057   0.0000000   0.0000000), wk =   0.0069444
        k(   29) = (   0.1045400   0.0149343  -0.0149343), wk =   0.0277778
        k(   30) = (   0.1194743   0.0298686  -0.0298686), wk =   0.0277778
        k(   31) = (  -0.0448029  -0.1344086   0.1344086), wk =   0.0277778
        k(   32) = (  -0.0298686  -0.1194743   0.1194743), wk =   0.0277778
        k(   33) = (  -0.0149343  -0.1045400   0.1045400), wk =   0.0277778
        k(   34) = (   0.0000000  -0.0896057   0.0896057), wk =   0.0138889
        k(   35) = (   0.1194743   0.0000000   0.0000000), wk =   0.0069444
        k(   36) = (   0.1344086   0.0149343  -0.0149343), wk =   0.0277778
        k(   37) = (  -0.0298686  -0.1493429   0.1493429), wk =   0.0277778
        k(   38) = (  -0.0149343  -0.1344086   0.1344086), wk =   0.0277778
        k(   39) = (   0.0000000  -0.1194743   0.1194743), wk =   0.0138889
        k(   40) = (   0.1493429   0.0000000   0.0000000), wk =   0.0069444
        k(   41) = (  -0.0149343  -0.1642772   0.1642772), wk =   0.0277778
        k(   42) = (   0.0000000  -0.1493429   0.1493429), wk =   0.0138889
        k(   43) = (  -0.1792115   0.0000000   0.0000000), wk =   0.0034722
        k(   44) = (   0.0597372   0.0298686   0.0000000), wk =   0.0277778
        k(   45) = (   0.0746714   0.0448029  -0.0149343), wk =   0.0555556
        k(   46) = (   0.0896057   0.0597372  -0.0298686), wk =   0.0555556
        k(   47) = (  -0.0746714  -0.1045400   0.1344086), wk =   0.0555556
        k(   48) = (  -0.0597372  -0.0896057   0.1194743), wk =   0.0277778
        k(   49) = (   0.0896057   0.0298686   0.0000000), wk =   0.0277778
        k(   50) = (   0.1045400   0.0448029  -0.0149343), wk =   0.0555556
        k(   51) = (  -0.0597372  -0.1194743   0.1493429), wk =   0.0555556
        k(   52) = (  -0.0448029  -0.1045400   0.1344086), wk =   0.0555556
        k(   53) = (  -0.0298686  -0.0896057   0.1194743), wk =   0.0555556
        k(   54) = (  -0.0149343  -0.0746714   0.1045400), wk =   0.0555556
        k(   55) = (   0.0000000  -0.0597372   0.0896057), wk =   0.0277778
        k(   56) = (   0.1194743   0.0298686   0.0000000), wk =   0.0277778
        k(   57) = (  -0.0448029  -0.1344086   0.1642772), wk =   0.0555556
        k(   58) = (  -0.0298686  -0.1194743   0.1493429), wk =   0.0555556
        k(   59) = (  -0.0149343  -0.1045400   0.1344086), wk =   0.0555556
        k(   60) = (   0.0000000  -0.0896057   0.1194743), wk =   0.0277778
        k(   61) = (  -0.0298686  -0.1493429   0.1792115), wk =   0.0277778
        k(   62) = (  -0.0149343  -0.1344086   0.1642772), wk =   0.0555556
        k(   63) = (   0.0000000  -0.1194743   0.1493429), wk =   0.0277778
        k(   64) = (  -0.1792115   0.0298686   0.0000000), wk =   0.0138889
        k(   65) = (  -0.0597372  -0.1194743   0.1792115), wk =   0.0277778
        k(   66) = (  -0.0448029  -0.1045400   0.1642772), wk =   0.0555556
        k(   67) = (  -0.0298686  -0.0896057   0.1493429), wk =   0.0277778
        k(   68) = (  -0.0298686  -0.1194743   0.1792115), wk =   0.0277778
        k(   69) = (  -0.0149343  -0.1045400   0.1642772), wk =   0.0555556
        k(   70) = (   0.0000000  -0.0896057   0.1493429), wk =   0.0277778
        k(   71) = (  -0.1792115   0.0597372   0.0000000), wk =   0.0138889
        k(   72) = (  -0.1792115   0.0896057   0.0000000), wk =   0.0069444

     Initial potential from superposition of free atoms

     WARNING: hubbard_occ =  2.d0 is set

     WARNING: Use as own risk.

     WARNING: hubbard_occ =  2.d0 is set

     WARNING: Use as own risk.

     starting charge    7.99847, renormalised to    8.00000
     Number of +U iterations with fixed ns =  0
     Starting occupations:
 --- enter write_ns ---
 LDA+U parameters:
U( 1)     =  1.60000000
alpha( 1) =  0.00000000
atom    1   Tr[ns(na)] =   2.00000
    eigenvalues:
  0.333  0.333  0.333
    eigenvectors:
  1.000  0.000  0.000
  0.000  1.000  0.000
  0.000  0.000  1.000
    occupations:
  0.333  0.000  0.000
  0.000  0.333  0.000
  0.000  0.000  0.333
atom    2   Tr[ns(na)] =   2.00000
    eigenvalues:
  0.333  0.333  0.333
    eigenvectors:
  1.000  0.000  0.000
  0.000  1.000  0.000
  0.000  0.000  1.000
    occupations:
  0.333  0.000  0.000
  0.000  0.333  0.000
  0.000  0.000  0.333
N of occupied +U levels =    4.000000
 --- exit write_ns ---
 Atomic wfc used for LDA+U Projector are NOT orthogonalized
     Starting wfc are    8 randomized atomic wfcs
     Checking if some PAW data can be deallocated...

     Self-consistent Calculation

     iteration #  1     ecut=    40.00 Ry     beta= 0.70
     Davidson diagonalization with overlap
     ethr =  1.00E-02,  avg # of iterations =  3.0
 --- enter write_ns ---
 LDA+U parameters:
U( 1)     =  1.60000000
alpha( 1) =  0.00000000
atom    1   Tr[ns(na)] =   4.70538
    eigenvalues:
  0.784  0.784  0.784
    eigenvectors:
  0.632  0.090  0.279
  0.346  0.027  0.627
  0.023  0.883  0.094
    occupations:
  0.784  0.000  0.000
  0.000  0.784  0.000
  0.000  0.000  0.784
atom    2   Tr[ns(na)] =   4.70519
    eigenvalues:
  0.784  0.784  0.784
    eigenvectors:
  0.633  0.065  0.303
  0.351  0.019  0.630
  0.016  0.917  0.067
    occupations:
  0.784  0.000  0.000
  0.000  0.784  0.000
  0.000  0.000  0.784
N of occupied +U levels =    9.410568
 --- exit write_ns ---

     Threshold (ethr) on eigenvalues was too large:
     Diagonalizing with lowered threshold

     Davidson diagonalization with overlap
     ethr =  4.49E-04,  avg # of iterations =  1.9

     total energy              =    -328.10783787 Ry
     Harris-Foulkes estimate   =    -327.97232464 Ry
     estimated scf accuracy    <       0.03605134 Ry

     iteration #  2     ecut=    40.00 Ry     beta= 0.70
     Davidson diagonalization with overlap
     ethr =  4.51E-04,  avg # of iterations =  1.3

[...]

     total energy              =    -328.11702968 Ry
     Harris-Foulkes estimate   =    -328.11701762 Ry
     estimated scf accuracy    <       0.00012348 Ry

     iteration #  4     ecut=    40.00 Ry     beta= 0.70
     Davidson diagonalization with overlap
     ethr =  1.54E-06,  avg # of iterations =  2.6

     End of self-consistent calculation
 --- enter write_ns ---
 LDA+U parameters:
U( 1)     =  1.60000000
alpha( 1) =  0.00000000
atom    1   Tr[ns(na)] =   4.82573
    eigenvalues:
  0.804  0.804  0.804
    eigenvectors:
  0.315  0.278  0.407
  0.624  0.012  0.364
  0.061  0.710  0.229
    occupations:
  0.804  0.000  0.000
  0.000  0.804  0.000
  0.000  0.000  0.804
atom    2   Tr[ns(na)] =   4.82575
    eigenvalues:
  0.804  0.804  0.804
    eigenvectors:
  0.358  0.227  0.416
  0.500  0.004  0.496
  0.142  0.769  0.089
    occupations:
  0.804  0.000  0.000
  0.000  0.804  0.000
  0.000  0.000  0.804
N of occupied +U levels =    9.651475
 --- exit write_ns ---

          k = 0.0000 0.0000 0.0000 (  1243 PWs)   bands (ev):

    -6.8539   5.9078   5.9078   5.9078   6.7200   8.6255   8.6255

[...]

          k =-0.0896-0.0896 0.0896 (  1224 PWs)   bands (ev):

[...]

          k = 0.0000-0.0896 0.1493 (  1247 PWs)   bands (ev):

[...]

          k =-0.1792 0.0896 0.0000 (  1232 PWs)   bands (ev):

    -3.1433  -3.1432   1.2604   1.2604  10.6576  10.6578  10.9320

     the Fermi energy is     6.0790 ev

!    total energy              =    -328.11703758 Ry
     Harris-Foulkes estimate   =    -328.11703764 Ry
     estimated scf accuracy    <       0.00000052 Ry

     total all-electron energy =     -8395.881805 Ry

     The total energy is the sum of the following terms:

     one-electron contribution =       5.87360431 Ry
     hartree contribution      =       1.08753582 Ry
     xc contribution           =     -13.29944163 Ry
     ewald contribution        =     -16.34735919 Ry
     Hubbard energy            =       0.11106495 Ry
     one-center paw contrib.   =    -305.54236338 Ry
     smearing contrib. (-TS)   =      -0.00007847 Ry

     convergence has been achieved in   4 iterations

     Forces acting on atoms (cartesian axes, Ry/au):

     atom    1 type  1   force =     0.00000000    0.00000000    0.00000000
     atom    2 type  1   force =     0.00000000    0.00000000    0.00000000

     Total force =     0.000000     Total SCF correction =     0.000000

     Computing stress (Cartesian axis) and pressure

          total   stress  (Ry/bohr**3)                   (kbar)     P=   25.45
   0.00017298   0.00000000   0.00000000         25.45      0.00      0.00
   0.00000000   0.00017298   0.00000000          0.00     25.45      0.00
   0.00000000   0.00000000   0.00017298          0.00      0.00     25.45

     Writing output data file scf.save

     WARNING: hubbard_l =  1 is set

     WARNING: hubbard_n =  4 is set

     General routines

     Parallel routines

     Hubbard U routines

   This run was terminated on:  21:31:28  15Sep2020

   JOB DONE.