     Program PWSCF v.6.2 starts on 10Jun2020 at  5:10:43

     R & G space division:  proc/nbgrp/npool/nimage =      16
     Waiting for input...
     Reading input from standard input
     Message from routine read_cards :
     DEPRECATED: no units specified in CELL_PARAMETERS card

     Current dimensions of program PWSCF are:
     Max number of different atomic species (ntypx) = 10
     Max number of k-points (npk) =  40000
     Max angular momentum in pseudopotentials (lmaxx) =  3

     bravais-lattice index     =            0
     lattice parameter (alat)  =       1.8897  a.u.
     unit-cell volume          =     304.2860 (a.u.)^3
     number of atoms/cell      =            2
     number of atomic types    =            1
     number of electrons       =         8.00
     number of Kohn-Sham states=            8
     kinetic-energy cutoff     =      50.0000  Ry
     charge density cutoff     =     200.0000  Ry
     convergence threshold     =      1.0E-06
     mixing beta               =       0.7000
     number of iterations used =            8  plain     mixing
     Exchange-correlation      =  SLA  PW   PBX  PBC ( 1  4  3  4 0 0)

     celldm(1)=   1.889726  celldm(2)=   0.000000  celldm(3)=   0.000000
     celldm(4)=   0.000000  celldm(5)=   0.000000  celldm(6)=   0.000000

     crystal axes: (cart. coord. in units of alat)
               a(1) = (   0.000000   2.825000   2.825000 )
               a(2) = (   2.825000   0.000000   2.825000 )
               a(3) = (   2.825000   2.825000   0.000000 )

     reciprocal axes: (cart. coord. in units 2 pi/alat)
               b(1) = ( -0.176991  0.176991  0.176991 )
               b(2) = (  0.176991 -0.176991  0.176991 )
               b(3) = (  0.176991  0.176991 -0.176991 )

     PseudoPot. # 1 for Ge read from file:
     /shared/ESPRESSO/PSLIBRARY/1.0.0/pbe/PSEUDOPOTENTIALS/Ge.pbe-n-kjpaw_psl.1.0.0.UPF
     MD5 check sum: e6063357164f7ec107b9a3d2bf12fbbf
     Pseudo is Projector augmented-wave + core cor, Zval =  4.0
     Generated using "atomic" code by A. Dal Corso  (Quantum ESPRESSO distribution)
     Shape of augmentation charge: PSQ
     Using radial grid of 1207 points,  4 beta functions with:
                l(1) =   0
                l(2) =   0
                l(3) =   1
                l(4) =   1
     Q(r) pseudized with 0 coefficients

     atomic species   valence    mass     pseudopotential
        Ge             4.00    72.63000     Ge( 1.00)

     48 Sym. Ops., with inversion, found (24 have fractional translation)

   Cartesian axes

     site n.     atom                  positions (alat units)
         1           Ge  tau(   1) = (   0.0000000   0.0000000   0.0000000  )
         2           Ge  tau(   2) = (   1.4125000   1.4125000   1.4125000  )

     number of k points=    72  Fermi-Dirac smearing, width (Ry)=  0.0070
                       cart. coord. in units 2pi/alat
        k(    1) = (   0.0000000   0.0000000   0.0000000), wk =   0.0011574
        k(    2) = (   0.0147493   0.0147493  -0.0147493), wk =   0.0092593
        k(    3) = (   0.0294985   0.0294985  -0.0294985), wk =   0.0092593
        k(    4) = (   0.0442478   0.0442478  -0.0442478), wk =   0.0092593
        k(    5) = (   0.0589971   0.0589971  -0.0589971), wk =   0.0092593
        k(    6) = (   0.0737463   0.0737463  -0.0737463), wk =   0.0092593
        k(    7) = (  -0.0884956  -0.0884956   0.0884956), wk =   0.0046296
        k(    8) = (   0.0294985   0.0000000   0.0000000), wk =   0.0069444
        k(    9) = (   0.0442478   0.0147493  -0.0147493), wk =   0.0277778
        k(   10) = (   0.0589971   0.0294985  -0.0294985), wk =   0.0277778
        k(   11) = (   0.0737463   0.0442478  -0.0442478), wk =   0.0277778
        k(   12) = (   0.0884956   0.0589971  -0.0589971), wk =   0.0277778
        k(   13) = (  -0.0737463  -0.1032448   0.1032448), wk =   0.0277778
        k(   14) = (  -0.0589971  -0.0884956   0.0884956), wk =   0.0277778
        k(   15) = (  -0.0442478  -0.0737463   0.0737463), wk =   0.0277778
        k(   16) = (  -0.0294985  -0.0589971   0.0589971), wk =   0.0277778
        k(   17) = (  -0.0147493  -0.0442478   0.0442478), wk =   0.0277778
        k(   18) = (   0.0000000  -0.0294985   0.0294985), wk =   0.0138889
        k(   19) = (   0.0589971   0.0000000   0.0000000), wk =   0.0069444
        k(   20) = (   0.0737463   0.0147493  -0.0147493), wk =   0.0277778
        k(   21) = (   0.0884956   0.0294985  -0.0294985), wk =   0.0277778
        k(   22) = (   0.1032448   0.0442478  -0.0442478), wk =   0.0277778
        k(   23) = (  -0.0589971  -0.1179941   0.1179941), wk =   0.0277778
        k(   24) = (  -0.0442478  -0.1032448   0.1032448), wk =   0.0277778
        k(   25) = (  -0.0294985  -0.0884956   0.0884956), wk =   0.0277778
        k(   26) = (  -0.0147493  -0.0737463   0.0737463), wk =   0.0277778
        k(   27) = (   0.0000000  -0.0589971   0.0589971), wk =   0.0138889
        k(   28) = (   0.0884956   0.0000000   0.0000000), wk =   0.0069444
        k(   29) = (   0.1032448   0.0147493  -0.0147493), wk =   0.0277778
        k(   30) = (   0.1179941   0.0294985  -0.0294985), wk =   0.0277778
        k(   31) = (  -0.0442478  -0.1327434   0.1327434), wk =   0.0277778
        k(   32) = (  -0.0294985  -0.1179941   0.1179941), wk =   0.0277778
        k(   33) = (  -0.0147493  -0.1032448   0.1032448), wk =   0.0277778
        k(   34) = (   0.0000000  -0.0884956   0.0884956), wk =   0.0138889
        k(   35) = (   0.1179941   0.0000000   0.0000000), wk =   0.0069444
        k(   36) = (   0.1327434   0.0147493  -0.0147493), wk =   0.0277778
        k(   37) = (  -0.0294985  -0.1474926   0.1474926), wk =   0.0277778
        k(   38) = (  -0.0147493  -0.1327434   0.1327434), wk =   0.0277778
        k(   39) = (   0.0000000  -0.1179941   0.1179941), wk =   0.0138889
        k(   40) = (   0.1474926   0.0000000   0.0000000), wk =   0.0069444
        k(   41) = (  -0.0147493  -0.1622419   0.1622419), wk =   0.0277778
        k(   42) = (   0.0000000  -0.1474926   0.1474926), wk =   0.0138889
        k(   43) = (  -0.1769912   0.0000000   0.0000000), wk =   0.0034722
        k(   44) = (   0.0589971   0.0294985   0.0000000), wk =   0.0277778
        k(   45) = (   0.0737463   0.0442478  -0.0147493), wk =   0.0555556
        k(   46) = (   0.0884956   0.0589971  -0.0294985), wk =   0.0555556
        k(   47) = (  -0.0737463  -0.1032448   0.1327434), wk =   0.0555556
        k(   48) = (  -0.0589971  -0.0884956   0.1179941), wk =   0.0277778
        k(   49) = (   0.0884956   0.0294985   0.0000000), wk =   0.0277778
        k(   50) = (   0.1032448   0.0442478  -0.0147493), wk =   0.0555556
        k(   51) = (  -0.0589971  -0.1179941   0.1474926), wk =   0.0555556
        k(   52) = (  -0.0442478  -0.1032448   0.1327434), wk =   0.0555556
        k(   53) = (  -0.0294985  -0.0884956   0.1179941), wk =   0.0555556
        k(   54) = (  -0.0147493  -0.0737463   0.1032448), wk =   0.0555556
        k(   55) = (   0.0000000  -0.0589971   0.0884956), wk =   0.0277778
        k(   56) = (   0.1179941   0.0294985   0.0000000), wk =   0.0277778
        k(   57) = (  -0.0442478  -0.1327434   0.1622419), wk =   0.0555556
        k(   58) = (  -0.0294985  -0.1179941   0.1474926), wk =   0.0555556
        k(   59) = (  -0.0147493  -0.1032448   0.1327434), wk =   0.0555556
        k(   60) = (   0.0000000  -0.0884956   0.1179941), wk =   0.0277778
        k(   61) = (  -0.0294985  -0.1474926   0.1769912), wk =   0.0277778
        k(   62) = (  -0.0147493  -0.1327434   0.1622419), wk =   0.0555556
        k(   63) = (   0.0000000  -0.1179941   0.1474926), wk =   0.0277778
        k(   64) = (  -0.1769912   0.0294985   0.0000000), wk =   0.0138889
        k(   65) = (  -0.0589971  -0.1179941   0.1769912), wk =   0.0277778
        k(   66) = (  -0.0442478  -0.1032448   0.1622419), wk =   0.0555556
        k(   67) = (  -0.0294985  -0.0884956   0.1474926), wk =   0.0277778
        k(   68) = (  -0.0294985  -0.1179941   0.1769912), wk =   0.0277778
        k(   69) = (  -0.0147493  -0.1032448   0.1622419), wk =   0.0555556
        k(   70) = (   0.0000000  -0.0884956   0.1474926), wk =   0.0277778
        k(   71) = (  -0.1769912   0.0589971   0.0000000), wk =   0.0138889
        k(   72) = (  -0.1769912   0.0884956   0.0000000), wk =   0.0069444

     Initial potential from superposition of free atoms

     starting charge    7.99847, renormalised to    8.00000
     Starting wfc are    8 randomized atomic wfcs
     Checking if some PAW data can be deallocated...

     Self-consistent Calculation

     iteration #  1     ecut=    50.00 Ry     beta= 0.70
     Davidson diagonalization with overlap
     ethr =  1.00E-02,  avg # of iterations =  3.1

     Threshold (ethr) on eigenvalues was too large:
     Diagonalizing with lowered threshold

     Davidson diagonalization with overlap
     ethr =  3.97E-04,  avg # of iterations =  1.8

     total energy              =    -328.23392933 Ry
     Harris-Foulkes estimate   =    -328.23994189 Ry
     estimated scf accuracy    <       0.03193687 Ry

[...]

     total energy              =    -328.23480843 Ry
     Harris-Foulkes estimate   =    -328.23480430 Ry
     estimated scf accuracy    <       0.00001693 Ry

     iteration #  4     ecut=    50.00 Ry     beta= 0.70
     Davidson diagonalization with overlap
     ethr =  2.12E-07,  avg # of iterations =  2.5

     End of self-consistent calculation

          k = 0.0000 0.0000 0.0000 (  1837 PWs)   bands (ev):

    -6.9226   5.8444   5.8444   5.8444   6.0184   8.4245   8.4245   8.4245

[...]

          k =-0.0885-0.0885 0.0885 (  1802 PWs)   bands (ev):

[...]

          k = 0.0000-0.0885 0.1475 (  1815 PWs)   bands (ev):

[...]

          k =-0.1770 0.0885 0.0000 (  1800 PWs)   bands (ev):

    -2.9497  -2.9497   1.9330   1.9330  10.2614  10.2614  10.5850  10.5850

     the Fermi energy is     5.9463 ev

!    total energy              =    -328.23481185 Ry
     Harris-Foulkes estimate   =    -328.23481170 Ry
     estimated scf accuracy    <       0.00000011 Ry

     total all-electron energy =     -8395.999580 Ry

     The total energy is the sum of the following terms:

     one-electron contribution =       5.57632142 Ry
     hartree contribution      =       1.14896529 Ry
     xc contribution           =     -13.27343215 Ry
     ewald contribution        =     -16.14482554 Ry
     one-center paw contrib.   =    -305.54170587 Ry
     smearing contrib. (-TS)   =      -0.00013500 Ry

     convergence has been achieved in   4 iterations

     Writing output data file scf.save

     General routines

     Parallel routines

   This run was terminated on:   5:13:38  10Jun2020

   JOB DONE.