     Program PWSCF v.6.2 starts on 15Sep2020 at 18:19:54

     R & G space division:  proc/nbgrp/npool/nimage =      16
     Waiting for input...
     Reading input from standard input

     Current dimensions of program PWSCF are:
     Max number of different atomic species (ntypx) = 10
     Max number of k-points (npk) =  40000
     Max angular momentum in pseudopotentials (lmaxx) =  3
     Message from routine iosys:
     minimal I/O required, wf_collect reset to FALSE

     bravais-lattice index     =            0
     lattice parameter (alat)  =       1.8897  a.u.
     unit-cell volume          =     305.9045 (a.u.)^3
     number of atoms/cell      =            2
     number of atomic types    =            1
     number of electrons       =         8.00
     number of Kohn-Sham states=            8
     kinetic-energy cutoff     =      40.0000  Ry
     charge density cutoff     =     200.0000  Ry
     convergence threshold     =      1.0E-06
     mixing beta               =       0.7000
     number of iterations used =            8  plain     mixing
     Exchange-correlation      =  SLA  PW   PBX  PBC ( 1  4  3  4 0 0)

     celldm(1)=   1.889726  celldm(2)=   0.000000  celldm(3)=   0.000000
     celldm(4)=   0.000000  celldm(5)=   0.000000  celldm(6)=   0.000000

     crystal axes: (cart. coord. in units of alat)
               a(1) = (   0.000000   2.830000   2.830000 )
               a(2) = (   2.830000   0.000000   2.830000 )
               a(3) = (   2.830000   2.830000   0.000000 )

     reciprocal axes: (cart. coord. in units 2 pi/alat)
               b(1) = ( -0.176678  0.176678  0.176678 )
               b(2) = (  0.176678 -0.176678  0.176678 )
               b(3) = (  0.176678  0.176678 -0.176678 )

     PseudoPot. # 1 for Ge read from file:
     /shared/ESPRESSO/PSLIBRARY/1.0.0/pbe/PSEUDOPOTENTIALS/Ge.pbe-n-kjpaw_psl.1.0.0.UPF
     MD5 check sum: e6063357164f7ec107b9a3d2bf12fbbf
     Pseudo is Projector augmented-wave + core cor, Zval =  4.0
     Generated using "atomic" code by A. Dal Corso  (Quantum ESPRESSO distribution)
     Shape of augmentation charge: PSQ
     Using radial grid of 1207 points,  4 beta functions with:
                l(1) =   0
                l(2) =   0
                l(3) =   1
                l(4) =   1
     Q(r) pseudized with 0 coefficients

     atomic species   valence    mass     pseudopotential
        Ge             4.00    72.63000     Ge( 1.00)

     48 Sym. Ops., with inversion, found (24 have fractional translation)

   Cartesian axes

     site n.     atom                  positions (alat units)
         1           Ge  tau(   1) = (   0.0000000   0.0000000   0.0000000  )
         2           Ge  tau(   2) = (   1.4150000   1.4150000   1.4150000  )

     number of k points=     8  Fermi-Dirac smearing, width (Ry)=  0.0070
                       cart. coord. in units 2pi/alat
        k(    1) = (   0.0000000   0.0000000   0.0000000), wk =   0.0312500
        k(    2) = (   0.0441696   0.0441696  -0.0441696), wk =   0.2500000
        k(    3) = (  -0.0883392  -0.0883392   0.0883392), wk =   0.1250000
        k(    4) = (   0.0883392   0.0000000   0.0000000), wk =   0.1875000
        k(    5) = (  -0.0441696  -0.1325088   0.1325088), wk =   0.7500000
        k(    6) = (   0.0000000  -0.0883392   0.0883392), wk =   0.3750000
        k(    7) = (  -0.1766784   0.0000000   0.0000000), wk =   0.0937500
        k(    8) = (  -0.1766784   0.0883392   0.0000000), wk =   0.1875000

     Initial potential from superposition of free atoms

     starting charge    7.99847, renormalised to    8.00000
     Starting wfc are    8 randomized atomic wfcs
     Checking if some PAW data can be deallocated...

     Self-consistent Calculation

     iteration #  1     ecut=    40.00 Ry     beta= 0.70
     Davidson diagonalization with overlap
     ethr =  1.00E-02,  avg # of iterations =  2.8

     Threshold (ethr) on eigenvalues was too large:
     Diagonalizing with lowered threshold

     Davidson diagonalization with overlap
     ethr =  4.59E-04,  avg # of iterations =  1.8

     total energy              =    -328.21509874 Ry
     Harris-Foulkes estimate   =    -328.22216258 Ry
     estimated scf accuracy    <       0.03677607 Ry

[...]

     total energy              =    -328.21623551 Ry
     Harris-Foulkes estimate   =    -328.21622761 Ry
     estimated scf accuracy    <       0.00002024 Ry

     iteration #  4     ecut=    40.00 Ry     beta= 0.70
     Davidson diagonalization with overlap
     ethr =  2.53E-07,  avg # of iterations =  2.2

     End of self-consistent calculation

          k = 0.0000 0.0000 0.0000 (  1291 PWs)   bands (ev):

    -6.9003   5.8305   5.8305   5.8305   5.9600   8.3902   8.3902   8.3902

[...]

          k =-0.0883-0.0883 0.0883 (  1308 PWs)   bands (ev):

[...]

          k = 0.0000-0.0883 0.0883 (  1312 PWs)   bands (ev):

[...]

          k =-0.1767 0.0883 0.0000 (  1316 PWs)   bands (ev):

    -2.9465  -2.9465   1.9341   1.9341  10.2138  10.2138  10.5614  10.5614

     the Fermi energy is     5.8892 ev

!    total energy              =    -328.21624010 Ry
     Harris-Foulkes estimate   =    -328.21623984 Ry
     estimated scf accuracy    <       0.00000017 Ry

     total all-electron energy =     -8395.981008 Ry

     The total energy is the sum of the following terms:

     one-electron contribution =       5.54156530 Ry
     hartree contribution      =       1.17913812 Ry
     xc contribution           =     -13.27840603 Ry
     ewald contribution        =     -16.11630111 Ry
     one-center paw contrib.   =    -305.54123463 Ry
     smearing contrib. (-TS)   =      -0.00100175 Ry

     convergence has been achieved in   4 iterations

     Forces acting on atoms (cartesian axes, Ry/au):

     atom    1 type  1   force =     0.00000000    0.00000000    0.00000000
     atom    2 type  1   force =     0.00000000    0.00000000    0.00000000

     Total force =     0.000000     Total SCF correction =     0.000000

     Computing stress (Cartesian axis) and pressure

          total   stress  (Ry/bohr**3)                   (kbar)     P=   45.62
   0.00031015   0.00000000   0.00000000         45.62      0.00      0.00
   0.00000000   0.00031015   0.00000000          0.00     45.62      0.00
   0.00000000   0.00000000   0.00031015          0.00      0.00     45.62

     General routines

     Parallel routines

   This run was terminated on:  18:19:55  15Sep2020

   JOB DONE.