     Program PWSCF v.6.2 starts on 19Jun2020 at 10:25:26

     R & G space division:  proc/nbgrp/npool/nimage =      16
     Waiting for input...
     Reading input from standard input

     Current dimensions of program PWSCF are:
     Max number of different atomic species (ntypx) = 10
     Max number of k-points (npk) =  40000
     Max angular momentum in pseudopotentials (lmaxx) =  3

     bravais-lattice index     =            0
     lattice parameter (alat)  =       1.8897  a.u.
     unit-cell volume          =     324.2574 (a.u.)^3
     number of atoms/cell      =            2
     number of atomic types    =            1
     number of electrons       =         8.00
     number of Kohn-Sham states=            8
     kinetic-energy cutoff     =      35.0000  Ry
     charge density cutoff     =     140.0000  Ry
     convergence threshold     =      1.0E-06
     mixing beta               =       0.7000
     number of iterations used =            8  plain     mixing
     Exchange-correlation      =  SLA  PW   PBX  PBC ( 1  4  3  4 0 0)

     celldm(1)=   1.889726  celldm(2)=   0.000000  celldm(3)=   0.000000
     celldm(4)=   0.000000  celldm(5)=   0.000000  celldm(6)=   0.000000

     crystal axes: (cart. coord. in units of alat)
               a(1) = (   0.000000   2.885500   2.885500 )
               a(2) = (   2.885500   0.000000   2.885500 )
               a(3) = (   2.885500   2.885500   0.000000 )

     reciprocal axes: (cart. coord. in units 2 pi/alat)
               b(1) = ( -0.173280  0.173280  0.173280 )
               b(2) = (  0.173280 -0.173280  0.173280 )
               b(3) = (  0.173280  0.173280 -0.173280 )

     PseudoPot. # 1 for Ge read from file:
     /shared/ESPRESSO/PSLIBRARY/1.0.0/pbe/PSEUDOPOTENTIALS/Ge.pbe-n-kjpaw_psl.1.0.0.UPF
     MD5 check sum: e6063357164f7ec107b9a3d2bf12fbbf
     Pseudo is Projector augmented-wave + core cor, Zval =  4.0
     Generated using "atomic" code by A. Dal Corso  (Quantum ESPRESSO distribution)
     Shape of augmentation charge: PSQ
     Using radial grid of 1207 points,  4 beta functions with:
                l(1) =   0
                l(2) =   0
                l(3) =   1
                l(4) =   1
     Q(r) pseudized with 0 coefficients

     atomic species   valence    mass     pseudopotential
        Ge             4.00    72.63000     Ge( 1.00)

     24 Sym. Ops. (no inversion) found
          (note: 24 additional sym.ops. were found but ignored
           their fractional translations are incommensurate with FFT grid)

   Cartesian axes

     site n.     atom                  positions (alat units)
         1           Ge  tau(   1) = (   0.0000000   0.0000000   0.0000000  )
         2           Ge  tau(   2) = (   1.4427500   1.4427500   1.4427500  )

     number of k points=    72  Fermi-Dirac smearing, width (Ry)=  0.0070
                       cart. coord. in units 2pi/alat
        k(    1) = (   0.0000000   0.0000000   0.0000000), wk =   0.0011574
        k(    2) = (   0.0144400   0.0144400  -0.0144400), wk =   0.0092593
        k(    3) = (   0.0288800   0.0288800  -0.0288800), wk =   0.0092593
        k(    4) = (   0.0433200   0.0433200  -0.0433200), wk =   0.0092593
        k(    5) = (   0.0577601   0.0577601  -0.0577601), wk =   0.0092593
        k(    6) = (   0.0722001   0.0722001  -0.0722001), wk =   0.0092593
        k(    7) = (  -0.0866401  -0.0866401   0.0866401), wk =   0.0046296
        k(    8) = (   0.0288800   0.0000000   0.0000000), wk =   0.0069444
        k(    9) = (   0.0433200   0.0144400  -0.0144400), wk =   0.0277778
        k(   10) = (   0.0577601   0.0288800  -0.0288800), wk =   0.0277778
        k(   11) = (   0.0722001   0.0433200  -0.0433200), wk =   0.0277778
        k(   12) = (   0.0866401   0.0577601  -0.0577601), wk =   0.0277778
        k(   13) = (  -0.0722001  -0.1010801   0.1010801), wk =   0.0277778
        k(   14) = (  -0.0577601  -0.0866401   0.0866401), wk =   0.0277778
        k(   15) = (  -0.0433200  -0.0722001   0.0722001), wk =   0.0277778
        k(   16) = (  -0.0288800  -0.0577601   0.0577601), wk =   0.0277778
        k(   17) = (  -0.0144400  -0.0433200   0.0433200), wk =   0.0277778
        k(   18) = (   0.0000000  -0.0288800   0.0288800), wk =   0.0138889
        k(   19) = (   0.0577601   0.0000000   0.0000000), wk =   0.0069444
        k(   20) = (   0.0722001   0.0144400  -0.0144400), wk =   0.0277778
        k(   21) = (   0.0866401   0.0288800  -0.0288800), wk =   0.0277778
        k(   22) = (   0.1010801   0.0433200  -0.0433200), wk =   0.0277778
        k(   23) = (  -0.0577601  -0.1155201   0.1155201), wk =   0.0277778
        k(   24) = (  -0.0433200  -0.1010801   0.1010801), wk =   0.0277778
        k(   25) = (  -0.0288800  -0.0866401   0.0866401), wk =   0.0277778
        k(   26) = (  -0.0144400  -0.0722001   0.0722001), wk =   0.0277778
        k(   27) = (   0.0000000  -0.0577601   0.0577601), wk =   0.0138889
        k(   28) = (   0.0866401   0.0000000   0.0000000), wk =   0.0069444
        k(   29) = (   0.1010801   0.0144400  -0.0144400), wk =   0.0277778
        k(   30) = (   0.1155201   0.0288800  -0.0288800), wk =   0.0277778
        k(   31) = (  -0.0433200  -0.1299601   0.1299601), wk =   0.0277778
        k(   32) = (  -0.0288800  -0.1155201   0.1155201), wk =   0.0277778
        k(   33) = (  -0.0144400  -0.1010801   0.1010801), wk =   0.0277778
        k(   34) = (   0.0000000  -0.0866401   0.0866401), wk =   0.0138889
        k(   35) = (   0.1155201   0.0000000   0.0000000), wk =   0.0069444
        k(   36) = (   0.1299601   0.0144400  -0.0144400), wk =   0.0277778
        k(   37) = (  -0.0288800  -0.1444002   0.1444002), wk =   0.0277778
        k(   38) = (  -0.0144400  -0.1299601   0.1299601), wk =   0.0277778
        k(   39) = (   0.0000000  -0.1155201   0.1155201), wk =   0.0138889
        k(   40) = (   0.1444002   0.0000000   0.0000000), wk =   0.0069444
        k(   41) = (  -0.0144400  -0.1588402   0.1588402), wk =   0.0277778
        k(   42) = (   0.0000000  -0.1444002   0.1444002), wk =   0.0138889
        k(   43) = (  -0.1732802   0.0000000   0.0000000), wk =   0.0034722
        k(   44) = (   0.0577601   0.0288800   0.0000000), wk =   0.0277778
        k(   45) = (   0.0722001   0.0433200  -0.0144400), wk =   0.0555556
        k(   46) = (   0.0866401   0.0577601  -0.0288800), wk =   0.0555556
        k(   47) = (  -0.0722001  -0.1010801   0.1299601), wk =   0.0555556
        k(   48) = (  -0.0577601  -0.0866401   0.1155201), wk =   0.0277778
        k(   49) = (   0.0866401   0.0288800   0.0000000), wk =   0.0277778
        k(   50) = (   0.1010801   0.0433200  -0.0144400), wk =   0.0555556
        k(   51) = (  -0.0577601  -0.1155201   0.1444002), wk =   0.0555556
        k(   52) = (  -0.0433200  -0.1010801   0.1299601), wk =   0.0555556
        k(   53) = (  -0.0288800  -0.0866401   0.1155201), wk =   0.0555556
        k(   54) = (  -0.0144400  -0.0722001   0.1010801), wk =   0.0555556
        k(   55) = (   0.0000000  -0.0577601   0.0866401), wk =   0.0277778
        k(   56) = (   0.1155201   0.0288800   0.0000000), wk =   0.0277778
        k(   57) = (  -0.0433200  -0.1299601   0.1588402), wk =   0.0555556
        k(   58) = (  -0.0288800  -0.1155201   0.1444002), wk =   0.0555556
        k(   59) = (  -0.0144400  -0.1010801   0.1299601), wk =   0.0555556
        k(   60) = (   0.0000000  -0.0866401   0.1155201), wk =   0.0277778
        k(   61) = (  -0.0288800  -0.1444002   0.1732802), wk =   0.0277778
        k(   62) = (  -0.0144400  -0.1299601   0.1588402), wk =   0.0555556
        k(   63) = (   0.0000000  -0.1155201   0.1444002), wk =   0.0277778
        k(   64) = (  -0.1732802   0.0288800   0.0000000), wk =   0.0138889
        k(   65) = (  -0.0577601  -0.1155201   0.1732802), wk =   0.0277778
        k(   66) = (  -0.0433200  -0.1010801   0.1588402), wk =   0.0555556
        k(   67) = (  -0.0288800  -0.0866401   0.1444002), wk =   0.0277778
        k(   68) = (  -0.0288800  -0.1155201   0.1732802), wk =   0.0277778
        k(   69) = (  -0.0144400  -0.1010801   0.1588402), wk =   0.0555556
        k(   70) = (   0.0000000  -0.0866401   0.1444002), wk =   0.0277778
        k(   71) = (  -0.1732802   0.0577601   0.0000000), wk =   0.0138889
        k(   72) = (  -0.1732802   0.0866401   0.0000000), wk =   0.0069444

     Initial potential from superposition of free atoms

     starting charge    7.99847, renormalised to    8.00000
     Starting wfc are    8 randomized atomic wfcs
     Checking if some PAW data can be deallocated...

     Self-consistent Calculation

     iteration #  1     ecut=    35.00 Ry     beta= 0.70
     Davidson diagonalization with overlap
     ethr =  1.00E-02,  avg # of iterations =  2.9

     Threshold (ethr) on eigenvalues was too large:
     Diagonalizing with lowered threshold

     Davidson diagonalization with overlap
     ethr =  3.61E-04,  avg # of iterations =  1.8

     total energy              =    -328.23680486 Ry
     Harris-Foulkes estimate   =    -328.24156598 Ry
     estimated scf accuracy    <       0.02889694 Ry

[...]

     total energy              =    -328.23746753 Ry
     Harris-Foulkes estimate   =    -328.23746415 Ry
     estimated scf accuracy    <       0.00001245 Ry

     iteration #  4     ecut=    35.00 Ry     beta= 0.70
     Davidson diagonalization with overlap
     ethr =  1.56E-07,  avg # of iterations =  2.5

     End of self-consistent calculation

          k = 0.0000 0.0000 0.0000 (  1139 PWs)   bands (ev):

    -7.1070   4.7774   5.1946   5.1946   5.1946   7.7400   7.7400   7.7400

[...]

          k =-0.0866-0.0866 0.0866 (  1158 PWs)   bands (ev):

[...]

          k = 0.0000-0.0866 0.1444 (  1135 PWs)   bands (ev):

[...]

          k =-0.1733 0.0866 0.0000 (  1144 PWs)   bands (ev):

    -3.3883  -3.3881   1.5759   1.5759   9.3421   9.3422   9.8868   9.8869

     the Fermi energy is     5.2105 ev

!    total energy              =    -328.23747050 Ry
     Harris-Foulkes estimate   =    -328.23747036 Ry
     estimated scf accuracy    <       0.00000010 Ry

     total all-electron energy =     -8396.002238 Ry

     The total energy is the sum of the following terms:

     one-electron contribution =       5.08736171 Ry
     hartree contribution      =       1.21255058 Ry
     xc contribution           =     -13.20192963 Ry
     ewald contribution        =     -15.80631852 Ry
     one-center paw contrib.   =    -305.52891304 Ry
     smearing contrib. (-TS)   =      -0.00022161 Ry

     convergence has been achieved in   4 iterations

     Forces acting on atoms (cartesian axes, Ry/au):

     atom    1 type  1   force =     0.00000000    0.00000000    0.00000000
     atom    2 type  1   force =     0.00000000    0.00000000    0.00000000

     Total force =     0.000000     Total SCF correction =     0.000000

     Computing stress (Cartesian axis) and pressure

          total   stress  (Ry/bohr**3)                   (kbar)     P=    0.18
   0.00000125   0.00000000   0.00000000          0.18      0.00      0.00
   0.00000000   0.00000125   0.00000000          0.00      0.18      0.00
   0.00000000   0.00000000   0.00000125          0.00      0.00      0.18

     Writing output data file scf.save

     General routines

     Parallel routines

   This run was terminated on:  10:26:55  19Jun2020

   JOB DONE.