     Program PWSCF v.6.2 starts on 10Jun2020 at  5: 9:38

     R & G space division:  proc/nbgrp/npool/nimage =      16
     Waiting for input...
     Reading input from standard input
     Message from routine read_cards :
     DEPRECATED: no units specified in CELL_PARAMETERS card

     Current dimensions of program PWSCF are:
     Max number of different atomic species (ntypx) = 10
     Max number of k-points (npk) =  40000
     Max angular momentum in pseudopotentials (lmaxx) =  3

     bravais-lattice index     =            0
     lattice parameter (alat)  =       1.8897  a.u.
     unit-cell volume          =     304.2860 (a.u.)^3
     number of atoms/cell      =            2
     number of atomic types    =            1
     number of electrons       =         8.00
     number of Kohn-Sham states=            8
     kinetic-energy cutoff     =      50.0000  Ry
     charge density cutoff     =     200.0000  Ry
     convergence threshold     =      1.0E-06
     mixing beta               =       0.7000
     number of iterations used =            8  plain     mixing
     Exchange-correlation      =  SLA  PW   PBX  PBC ( 1  4  3  4 0 0)

     celldm(1)=   1.889726  celldm(2)=   0.000000  celldm(3)=   0.000000
     celldm(4)=   0.000000  celldm(5)=   0.000000  celldm(6)=   0.000000

     crystal axes: (cart. coord. in units of alat)
               a(1) = (   0.000000   2.825000   2.825000 )
               a(2) = (   2.825000   0.000000   2.825000 )
               a(3) = (   2.825000   2.825000   0.000000 )

     reciprocal axes: (cart. coord. in units 2 pi/alat)
               b(1) = ( -0.176991  0.176991  0.176991 )
               b(2) = (  0.176991 -0.176991  0.176991 )
               b(3) = (  0.176991  0.176991 -0.176991 )

     PseudoPot. # 1 for Ge read from file:
     /shared/ESPRESSO/PSLIBRARY/1.0.0/pbe/PSEUDOPOTENTIALS/Ge.pbe-n-kjpaw_psl.1.0.0.UPF
     MD5 check sum: e6063357164f7ec107b9a3d2bf12fbbf
     Pseudo is Projector augmented-wave + core cor, Zval =  4.0
     Generated using "atomic" code by A. Dal Corso  (Quantum ESPRESSO distribution)
     Shape of augmentation charge: PSQ
     Using radial grid of 1207 points,  4 beta functions with:
                l(1) =   0
                l(2) =   0
                l(3) =   1
                l(4) =   1
     Q(r) pseudized with 0 coefficients

     atomic species   valence    mass     pseudopotential
        Ge             4.00    72.63000     Ge( 1.00)

     48 Sym. Ops., with inversion, found (24 have fractional translation)

   Cartesian axes

     site n.     atom                  positions (alat units)
         1           Ge  tau(   1) = (   0.0000000   0.0000000   0.0000000  )
         2           Ge  tau(   2) = (   1.4125000   1.4125000   1.4125000  )

     number of k points=    47  Fermi-Dirac smearing, width (Ry)=  0.0070
                       cart. coord. in units 2pi/alat
        k(    1) = (   0.0000000   0.0000000   0.0000000), wk =   0.0020000
        k(    2) = (   0.0176991   0.0176991  -0.0176991), wk =   0.0160000
        k(    3) = (   0.0353982   0.0353982  -0.0353982), wk =   0.0160000
        k(    4) = (   0.0530973   0.0530973  -0.0530973), wk =   0.0160000
        k(    5) = (   0.0707965   0.0707965  -0.0707965), wk =   0.0160000
        k(    6) = (  -0.0884956  -0.0884956   0.0884956), wk =   0.0080000
        k(    7) = (   0.0353982   0.0000000   0.0000000), wk =   0.0120000
        k(    8) = (   0.0530973   0.0176991  -0.0176991), wk =   0.0480000
        k(    9) = (   0.0707965   0.0353982  -0.0353982), wk =   0.0480000
        k(   10) = (   0.0884956   0.0530973  -0.0530973), wk =   0.0480000
        k(   11) = (  -0.0707965  -0.1061947   0.1061947), wk =   0.0480000
        k(   12) = (  -0.0530973  -0.0884956   0.0884956), wk =   0.0480000
        k(   13) = (  -0.0353982  -0.0707965   0.0707965), wk =   0.0480000
        k(   14) = (  -0.0176991  -0.0530973   0.0530973), wk =   0.0480000
        k(   15) = (   0.0000000  -0.0353982   0.0353982), wk =   0.0240000
        k(   16) = (   0.0707965   0.0000000   0.0000000), wk =   0.0120000
        k(   17) = (   0.0884956   0.0176991  -0.0176991), wk =   0.0480000
        k(   18) = (   0.1061947   0.0353982  -0.0353982), wk =   0.0480000
        k(   19) = (  -0.0530973  -0.1238938   0.1238938), wk =   0.0480000
        k(   20) = (  -0.0353982  -0.1061947   0.1061947), wk =   0.0480000
        k(   21) = (  -0.0176991  -0.0884956   0.0884956), wk =   0.0480000
        k(   22) = (   0.0000000  -0.0707965   0.0707965), wk =   0.0240000
        k(   23) = (   0.1061947   0.0000000   0.0000000), wk =   0.0120000
        k(   24) = (   0.1238938   0.0176991  -0.0176991), wk =   0.0480000
        k(   25) = (  -0.0353982  -0.1415929   0.1415929), wk =   0.0480000
        k(   26) = (  -0.0176991  -0.1238938   0.1238938), wk =   0.0480000
        k(   27) = (   0.0000000  -0.1061947   0.1061947), wk =   0.0240000
        k(   28) = (   0.1415929   0.0000000   0.0000000), wk =   0.0120000
        k(   29) = (  -0.0176991  -0.1592920   0.1592920), wk =   0.0480000
        k(   30) = (   0.0000000  -0.1415929   0.1415929), wk =   0.0240000
        k(   31) = (  -0.1769912   0.0000000   0.0000000), wk =   0.0060000
        k(   32) = (   0.0707965   0.0353982   0.0000000), wk =   0.0480000
        k(   33) = (   0.0884956   0.0530973  -0.0176991), wk =   0.0960000
        k(   34) = (  -0.0707965  -0.1061947   0.1415929), wk =   0.0960000
        k(   35) = (  -0.0530973  -0.0884956   0.1238938), wk =   0.0480000
        k(   36) = (   0.1061947   0.0353982   0.0000000), wk =   0.0480000
        k(   37) = (  -0.0530973  -0.1238938   0.1592920), wk =   0.0960000
        k(   38) = (  -0.0353982  -0.1061947   0.1415929), wk =   0.0960000
        k(   39) = (  -0.0176991  -0.0884956   0.1238938), wk =   0.0960000
        k(   40) = (   0.0000000  -0.0707965   0.1061947), wk =   0.0480000
        k(   41) = (  -0.0353982  -0.1415929   0.1769912), wk =   0.0480000
        k(   42) = (  -0.0176991  -0.1238938   0.1592920), wk =   0.0960000
        k(   43) = (   0.0000000  -0.1061947   0.1415929), wk =   0.0480000
        k(   44) = (  -0.1769912   0.0353982   0.0000000), wk =   0.0240000
        k(   45) = (  -0.0353982  -0.1061947   0.1769912), wk =   0.0480000
        k(   46) = (  -0.0176991  -0.0884956   0.1592920), wk =   0.0480000
        k(   47) = (  -0.1769912   0.0707965   0.0000000), wk =   0.0240000

     Initial potential from superposition of free atoms

     starting charge    7.99847, renormalised to    8.00000
     Starting wfc are    8 randomized atomic wfcs
     Checking if some PAW data can be deallocated...

     Self-consistent Calculation

     iteration #  1     ecut=    50.00 Ry     beta= 0.70
     Davidson diagonalization with overlap
     ethr =  1.00E-02,  avg # of iterations =  3.0

     Threshold (ethr) on eigenvalues was too large:
     Diagonalizing with lowered threshold

     Davidson diagonalization with overlap
     ethr =  3.98E-04,  avg # of iterations =  1.8

     total energy              =    -328.23377757 Ry
     Harris-Foulkes estimate   =    -328.23980230 Ry
     estimated scf accuracy    <       0.03201175 Ry

[...]

     total energy              =    -328.23465911 Ry
     Harris-Foulkes estimate   =    -328.23465508 Ry
     estimated scf accuracy    <       0.00001693 Ry

     iteration #  4     ecut=    50.00 Ry     beta= 0.70
     Davidson diagonalization with overlap
     ethr =  2.12E-07,  avg # of iterations =  2.4

     End of self-consistent calculation

          k = 0.0000 0.0000 0.0000 (  1837 PWs)   bands (ev):

    -6.9223   5.8448   5.8448   5.8448   6.0187   8.4247   8.4247   8.4247

[...]

          k =-0.0885-0.0885 0.0885 (  1802 PWs)   bands (ev):

[...]

          k = 0.0000-0.1062 0.1416 (  1813 PWs)   bands (ev):

[...]

          k =-0.1770 0.0708 0.0000 (  1812 PWs)   bands (ev):

    -2.9592  -2.9592   1.9992   1.9992   9.2616   9.2616  11.6713  11.6713

     the Fermi energy is     5.9304 ev

!    total energy              =    -328.23466254 Ry
     Harris-Foulkes estimate   =    -328.23466238 Ry
     estimated scf accuracy    <       0.00000012 Ry

     total all-electron energy =     -8395.999430 Ry

     The total energy is the sum of the following terms:

     one-electron contribution =       5.57625132 Ry
     hartree contribution      =       1.14928998 Ry
     xc contribution           =     -13.27353565 Ry
     ewald contribution        =     -16.14482554 Ry
     one-center paw contrib.   =    -305.54167370 Ry
     smearing contrib. (-TS)   =      -0.00016895 Ry

     convergence has been achieved in   4 iterations

     Writing output data file scf.save

     General routines

     Parallel routines

   This run was terminated on:   5:11:59  10Jun2020

   JOB DONE.