     Program PWSCF v.6.2 starts on 15Sep2020 at 18:20: 4

     R & G space division:  proc/nbgrp/npool/nimage =      16
     Waiting for input...
     Reading input from standard input

     Current dimensions of program PWSCF are:
     Max number of different atomic species (ntypx) = 10
     Max number of k-points (npk) =  40000
     Max angular momentum in pseudopotentials (lmaxx) =  3
     Message from routine iosys:
     minimal I/O required, wf_collect reset to FALSE

     bravais-lattice index     =            0
     lattice parameter (alat)  =       1.8897  a.u.
     unit-cell volume          =     305.9045 (a.u.)^3
     number of atoms/cell      =            2
     number of atomic types    =            1
     number of electrons       =         8.00
     number of Kohn-Sham states=            8
     kinetic-energy cutoff     =      40.0000  Ry
     charge density cutoff     =     200.0000  Ry
     convergence threshold     =      1.0E-06
     mixing beta               =       0.7000
     number of iterations used =            8  plain     mixing
     Exchange-correlation      =  SLA  PW   PBX  PBC ( 1  4  3  4 0 0)

     celldm(1)=   1.889726  celldm(2)=   0.000000  celldm(3)=   0.000000
     celldm(4)=   0.000000  celldm(5)=   0.000000  celldm(6)=   0.000000

     crystal axes: (cart. coord. in units of alat)
               a(1) = (   0.000000   2.830000   2.830000 )
               a(2) = (   2.830000   0.000000   2.830000 )
               a(3) = (   2.830000   2.830000   0.000000 )

     reciprocal axes: (cart. coord. in units 2 pi/alat)
               b(1) = ( -0.176678  0.176678  0.176678 )
               b(2) = (  0.176678 -0.176678  0.176678 )
               b(3) = (  0.176678  0.176678 -0.176678 )

     PseudoPot. # 1 for Ge read from file:
     /shared/ESPRESSO/PSLIBRARY/1.0.0/pbe/PSEUDOPOTENTIALS/Ge.pbe-n-kjpaw_psl.1.0.0.UPF
     MD5 check sum: e6063357164f7ec107b9a3d2bf12fbbf
     Pseudo is Projector augmented-wave + core cor, Zval =  4.0
     Generated using "atomic" code by A. Dal Corso  (Quantum ESPRESSO distribution)
     Shape of augmentation charge: PSQ
     Using radial grid of 1207 points,  4 beta functions with:
                l(1) =   0
                l(2) =   0
                l(3) =   1
                l(4) =   1
     Q(r) pseudized with 0 coefficients

     atomic species   valence    mass     pseudopotential
        Ge             4.00    72.63000     Ge( 1.00)

     48 Sym. Ops., with inversion, found (24 have fractional translation)

   Cartesian axes

     site n.     atom                  positions (alat units)
         1           Ge  tau(   1) = (   0.0000000   0.0000000   0.0000000  )
         2           Ge  tau(   2) = (   1.4150000   1.4150000   1.4150000  )

     number of k points=    47  Fermi-Dirac smearing, width (Ry)=  0.0070
                       cart. coord. in units 2pi/alat
        k(    1) = (   0.0000000   0.0000000   0.0000000), wk =   0.0020000
        k(    2) = (   0.0176678   0.0176678  -0.0176678), wk =   0.0160000
        k(    3) = (   0.0353357   0.0353357  -0.0353357), wk =   0.0160000
        k(    4) = (   0.0530035   0.0530035  -0.0530035), wk =   0.0160000
        k(    5) = (   0.0706714   0.0706714  -0.0706714), wk =   0.0160000
        k(    6) = (  -0.0883392  -0.0883392   0.0883392), wk =   0.0080000
        k(    7) = (   0.0353357   0.0000000   0.0000000), wk =   0.0120000
        k(    8) = (   0.0530035   0.0176678  -0.0176678), wk =   0.0480000
        k(    9) = (   0.0706714   0.0353357  -0.0353357), wk =   0.0480000
        k(   10) = (   0.0883392   0.0530035  -0.0530035), wk =   0.0480000
        k(   11) = (  -0.0706714  -0.1060071   0.1060071), wk =   0.0480000
        k(   12) = (  -0.0530035  -0.0883392   0.0883392), wk =   0.0480000
        k(   13) = (  -0.0353357  -0.0706714   0.0706714), wk =   0.0480000
        k(   14) = (  -0.0176678  -0.0530035   0.0530035), wk =   0.0480000
        k(   15) = (   0.0000000  -0.0353357   0.0353357), wk =   0.0240000
        k(   16) = (   0.0706714   0.0000000   0.0000000), wk =   0.0120000
        k(   17) = (   0.0883392   0.0176678  -0.0176678), wk =   0.0480000
        k(   18) = (   0.1060071   0.0353357  -0.0353357), wk =   0.0480000
        k(   19) = (  -0.0530035  -0.1236749   0.1236749), wk =   0.0480000
        k(   20) = (  -0.0353357  -0.1060071   0.1060071), wk =   0.0480000
        k(   21) = (  -0.0176678  -0.0883392   0.0883392), wk =   0.0480000
        k(   22) = (   0.0000000  -0.0706714   0.0706714), wk =   0.0240000
        k(   23) = (   0.1060071   0.0000000   0.0000000), wk =   0.0120000
        k(   24) = (   0.1236749   0.0176678  -0.0176678), wk =   0.0480000
        k(   25) = (  -0.0353357  -0.1413428   0.1413428), wk =   0.0480000
        k(   26) = (  -0.0176678  -0.1236749   0.1236749), wk =   0.0480000
        k(   27) = (   0.0000000  -0.1060071   0.1060071), wk =   0.0240000
        k(   28) = (   0.1413428   0.0000000   0.0000000), wk =   0.0120000
        k(   29) = (  -0.0176678  -0.1590106   0.1590106), wk =   0.0480000
        k(   30) = (   0.0000000  -0.1413428   0.1413428), wk =   0.0240000
        k(   31) = (  -0.1766784   0.0000000   0.0000000), wk =   0.0060000
        k(   32) = (   0.0706714   0.0353357   0.0000000), wk =   0.0480000
        k(   33) = (   0.0883392   0.0530035  -0.0176678), wk =   0.0960000
        k(   34) = (  -0.0706714  -0.1060071   0.1413428), wk =   0.0960000
        k(   35) = (  -0.0530035  -0.0883392   0.1236749), wk =   0.0480000
        k(   36) = (   0.1060071   0.0353357   0.0000000), wk =   0.0480000
        k(   37) = (  -0.0530035  -0.1236749   0.1590106), wk =   0.0960000
        k(   38) = (  -0.0353357  -0.1060071   0.1413428), wk =   0.0960000
        k(   39) = (  -0.0176678  -0.0883392   0.1236749), wk =   0.0960000
        k(   40) = (   0.0000000  -0.0706714   0.1060071), wk =   0.0480000
        k(   41) = (  -0.0353357  -0.1413428   0.1766784), wk =   0.0480000
        k(   42) = (  -0.0176678  -0.1236749   0.1590106), wk =   0.0960000
        k(   43) = (   0.0000000  -0.1060071   0.1413428), wk =   0.0480000
        k(   44) = (  -0.1766784   0.0353357   0.0000000), wk =   0.0240000
        k(   45) = (  -0.0353357  -0.1060071   0.1766784), wk =   0.0480000
        k(   46) = (  -0.0176678  -0.0883392   0.1590106), wk =   0.0480000
        k(   47) = (  -0.1766784   0.0706714   0.0000000), wk =   0.0240000

     Initial potential from superposition of free atoms

     starting charge    7.99847, renormalised to    8.00000
     Starting wfc are    8 randomized atomic wfcs
     Checking if some PAW data can be deallocated...

     Self-consistent Calculation

     iteration #  1     ecut=    40.00 Ry     beta= 0.70
     Davidson diagonalization with overlap
     ethr =  1.00E-02,  avg # of iterations =  3.0

     Threshold (ethr) on eigenvalues was too large:
     Diagonalizing with lowered threshold

     Davidson diagonalization with overlap
     ethr =  3.96E-04,  avg # of iterations =  1.8

     total energy              =    -328.23413459 Ry
     Harris-Foulkes estimate   =    -328.24004573 Ry
     estimated scf accuracy    <       0.03173210 Ry

[...]

     total energy              =    -328.23499194 Ry
     Harris-Foulkes estimate   =    -328.23498800 Ry
     estimated scf accuracy    <       0.00001645 Ry

     iteration #  4     ecut=    40.00 Ry     beta= 0.70
     Davidson diagonalization with overlap
     ethr =  2.06E-07,  avg # of iterations =  2.4

     End of self-consistent calculation

          k = 0.0000 0.0000 0.0000 (  1291 PWs)   bands (ev):

    -6.9378   5.7891   5.7891   5.7891   5.9127   8.3664   8.3664   8.3664

[...]

          k =-0.0883-0.0883 0.0883 (  1308 PWs)   bands (ev):

[...]

          k = 0.0000-0.1060 0.1413 (  1298 PWs)   bands (ev):

[...]

          k =-0.1767 0.0707 0.0000 (  1302 PWs)   bands (ev):

    -2.9962  -2.9962   1.9681   1.9681   9.1974   9.1974  11.5972  11.5972

     the Fermi energy is     5.8652 ev

!    total energy              =    -328.23499528 Ry
     Harris-Foulkes estimate   =    -328.23499512 Ry
     estimated scf accuracy    <       0.00000011 Ry

     total all-electron energy =     -8395.999763 Ry

     The total energy is the sum of the following terms:

     one-electron contribution =       5.53487635 Ry
     hartree contribution      =       1.15452908 Ry
     xc contribution           =     -13.26743955 Ry
     ewald contribution        =     -16.11630111 Ry
     one-center paw contrib.   =    -305.54048189 Ry
     smearing contrib. (-TS)   =      -0.00017815 Ry

     convergence has been achieved in   4 iterations

     Forces acting on atoms (cartesian axes, Ry/au):

     atom    1 type  1   force =     0.00000000    0.00000000    0.00000000
     atom    2 type  1   force =     0.00000000    0.00000000    0.00000000

     Total force =     0.000000     Total SCF correction =     0.000000

     Computing stress (Cartesian axis) and pressure

          total   stress  (Ry/bohr**3)                   (kbar)     P=   39.51
   0.00026857   0.00000000   0.00000000         39.51      0.00      0.00
   0.00000000   0.00026857   0.00000000          0.00     39.51      0.00
   0.00000000   0.00000000   0.00026857          0.00      0.00     39.51

     General routines

     Parallel routines

   This run was terminated on:  18:20:11  15Sep2020

   JOB DONE.