     Program PWSCF v.6.2 starts on 15Sep2020 at 18:19:59

     R & G space division:  proc/nbgrp/npool/nimage =      16
     Waiting for input...
     Reading input from standard input

     Current dimensions of program PWSCF are:
     Max number of different atomic species (ntypx) = 10
     Max number of k-points (npk) =  40000
     Max angular momentum in pseudopotentials (lmaxx) =  3
     Message from routine iosys:
     minimal I/O required, wf_collect reset to FALSE

     bravais-lattice index     =            0
     lattice parameter (alat)  =       1.8897  a.u.
     unit-cell volume          =     305.9045 (a.u.)^3
     number of atoms/cell      =            2
     number of atomic types    =            1
     number of electrons       =         8.00
     number of Kohn-Sham states=            8
     kinetic-energy cutoff     =      40.0000  Ry
     charge density cutoff     =     200.0000  Ry
     convergence threshold     =      1.0E-06
     mixing beta               =       0.7000
     number of iterations used =            8  plain     mixing
     Exchange-correlation      =  SLA  PW   PBX  PBC ( 1  4  3  4 0 0)

     celldm(1)=   1.889726  celldm(2)=   0.000000  celldm(3)=   0.000000
     celldm(4)=   0.000000  celldm(5)=   0.000000  celldm(6)=   0.000000

     crystal axes: (cart. coord. in units of alat)
               a(1) = (   0.000000   2.830000   2.830000 )
               a(2) = (   2.830000   0.000000   2.830000 )
               a(3) = (   2.830000   2.830000   0.000000 )

     reciprocal axes: (cart. coord. in units 2 pi/alat)
               b(1) = ( -0.176678  0.176678  0.176678 )
               b(2) = (  0.176678 -0.176678  0.176678 )
               b(3) = (  0.176678  0.176678 -0.176678 )

     PseudoPot. # 1 for Ge read from file:
     /shared/ESPRESSO/PSLIBRARY/1.0.0/pbe/PSEUDOPOTENTIALS/Ge.pbe-n-kjpaw_psl.1.0.0.UPF
     MD5 check sum: e6063357164f7ec107b9a3d2bf12fbbf
     Pseudo is Projector augmented-wave + core cor, Zval =  4.0
     Generated using "atomic" code by A. Dal Corso  (Quantum ESPRESSO distribution)
     Shape of augmentation charge: PSQ
     Using radial grid of 1207 points,  4 beta functions with:
                l(1) =   0
                l(2) =   0
                l(3) =   1
                l(4) =   1
     Q(r) pseudized with 0 coefficients

     atomic species   valence    mass     pseudopotential
        Ge             4.00    72.63000     Ge( 1.00)

     48 Sym. Ops., with inversion, found (24 have fractional translation)

   Cartesian axes

     site n.     atom                  positions (alat units)
         1           Ge  tau(   1) = (   0.0000000   0.0000000   0.0000000  )
         2           Ge  tau(   2) = (   1.4150000   1.4150000   1.4150000  )

     number of k points=    35  Fermi-Dirac smearing, width (Ry)=  0.0070
                       cart. coord. in units 2pi/alat
        k(    1) = (   0.0000000   0.0000000   0.0000000), wk =   0.0027435
        k(    2) = (   0.0196309   0.0196309  -0.0196309), wk =   0.0219479
        k(    3) = (   0.0392619   0.0392619  -0.0392619), wk =   0.0219479
        k(    4) = (   0.0588928   0.0588928  -0.0588928), wk =   0.0219479
        k(    5) = (   0.0785238   0.0785238  -0.0785238), wk =   0.0219479
        k(    6) = (   0.0392619   0.0000000   0.0000000), wk =   0.0164609
        k(    7) = (   0.0588928   0.0196309  -0.0196309), wk =   0.0658436
        k(    8) = (   0.0785238   0.0392619  -0.0392619), wk =   0.0658436
        k(    9) = (   0.0981547   0.0588928  -0.0588928), wk =   0.0658436
        k(   10) = (  -0.0588928  -0.0981547   0.0981547), wk =   0.0658436
        k(   11) = (  -0.0392619  -0.0785238   0.0785238), wk =   0.0658436
        k(   12) = (  -0.0196309  -0.0588928   0.0588928), wk =   0.0658436
        k(   13) = (   0.0000000  -0.0392619   0.0392619), wk =   0.0329218
        k(   14) = (   0.0785238   0.0000000   0.0000000), wk =   0.0164609
        k(   15) = (   0.0981547   0.0196309  -0.0196309), wk =   0.0658436
        k(   16) = (   0.1177856   0.0392619  -0.0392619), wk =   0.0658436
        k(   17) = (  -0.0392619  -0.1177856   0.1177856), wk =   0.0658436
        k(   18) = (  -0.0196309  -0.0981547   0.0981547), wk =   0.0658436
        k(   19) = (   0.0000000  -0.0785238   0.0785238), wk =   0.0329218
        k(   20) = (   0.1177856   0.0000000   0.0000000), wk =   0.0164609
        k(   21) = (   0.1374166   0.0196309  -0.0196309), wk =   0.0658436
        k(   22) = (  -0.0196309  -0.1374166   0.1374166), wk =   0.0658436
        k(   23) = (   0.0000000  -0.1177856   0.1177856), wk =   0.0329218
        k(   24) = (   0.1570475   0.0000000   0.0000000), wk =   0.0164609
        k(   25) = (   0.0000000  -0.1570475   0.1570475), wk =   0.0329218
        k(   26) = (   0.0785238   0.0392619   0.0000000), wk =   0.0658436
        k(   27) = (   0.0981547   0.0588928  -0.0196309), wk =   0.1316872
        k(   28) = (  -0.0588928  -0.0981547   0.1374166), wk =   0.1316872
        k(   29) = (   0.1177856   0.0392619   0.0000000), wk =   0.0658436
        k(   30) = (  -0.0392619  -0.1177856   0.1570475), wk =   0.1316872
        k(   31) = (  -0.0196309  -0.0981547   0.1374166), wk =   0.1316872
        k(   32) = (   0.0000000  -0.0785238   0.1177856), wk =   0.0658436
        k(   33) = (  -0.0196309  -0.1374166   0.1766784), wk =   0.0658436
        k(   34) = (   0.0000000  -0.1177856   0.1570475), wk =   0.0658436
        k(   35) = (  -0.0196309  -0.0981547   0.1766784), wk =   0.0658436

     Initial potential from superposition of free atoms

     starting charge    7.99847, renormalised to    8.00000
     Starting wfc are    8 randomized atomic wfcs
     Checking if some PAW data can be deallocated...

     Self-consistent Calculation

     iteration #  1     ecut=    40.00 Ry     beta= 0.70
     Davidson diagonalization with overlap
     ethr =  1.00E-02,  avg # of iterations =  3.0

     Threshold (ethr) on eigenvalues was too large:
     Diagonalizing with lowered threshold

     Davidson diagonalization with overlap
     ethr =  3.97E-04,  avg # of iterations =  1.8

     total energy              =    -328.23394406 Ry
     Harris-Foulkes estimate   =    -328.23987232 Ry
     estimated scf accuracy    <       0.03180921 Ry

[...]

     total energy              =    -328.23480836 Ry
     Harris-Foulkes estimate   =    -328.23480425 Ry
     estimated scf accuracy    <       0.00001650 Ry

     iteration #  4     ecut=    40.00 Ry     beta= 0.70
     Davidson diagonalization with overlap
     ethr =  2.06E-07,  avg # of iterations =  2.4

     End of self-consistent calculation

          k = 0.0000 0.0000 0.0000 (  1291 PWs)   bands (ev):

    -6.9372   5.7898   5.7898   5.7898   5.9134   8.3668   8.3668   8.3668

[...]

          k =-0.0589-0.0982 0.0982 (  1303 PWs)   bands (ev):

[...]

          k = 0.0000-0.1178 0.1570 (  1302 PWs)   bands (ev):

[...]

          k =-0.0196-0.0982 0.1767 (  1303 PWs)   bands (ev):

    -3.5482  -2.4268   1.6959   2.3182   9.6401   9.7190  10.2484  12.0480

     the Fermi energy is     5.8561 ev

!    total energy              =    -328.23481181 Ry
     Harris-Foulkes estimate   =    -328.23481166 Ry
     estimated scf accuracy    <       0.00000011 Ry

     total all-electron energy =     -8395.999580 Ry

     The total energy is the sum of the following terms:

     one-electron contribution =       5.53479903 Ry
     hartree contribution      =       1.15489923 Ry
     xc contribution           =     -13.26756146 Ry
     ewald contribution        =     -16.11630111 Ry
     one-center paw contrib.   =    -305.54044608 Ry
     smearing contrib. (-TS)   =      -0.00020142 Ry

     convergence has been achieved in   4 iterations

     Forces acting on atoms (cartesian axes, Ry/au):

     atom    1 type  1   force =     0.00000000    0.00000000    0.00000000
     atom    2 type  1   force =     0.00000000    0.00000000    0.00000000

     Total force =     0.000000     Total SCF correction =     0.000000

     Computing stress (Cartesian axis) and pressure

          total   stress  (Ry/bohr**3)                   (kbar)     P=   39.43
   0.00026803   0.00000000   0.00000000         39.43      0.00      0.00
   0.00000000   0.00026803   0.00000000          0.00     39.43      0.00
   0.00000000   0.00000000   0.00026803          0.00      0.00     39.43

     General routines

     Parallel routines

   This run was terminated on:  18:20: 1  15Sep2020

   JOB DONE.