     Program PWSCF v.6.2 starts on 10Sep2020 at 21:48:21

     R & G space division:  proc/nbgrp/npool/nimage =      16
     Waiting for input...
     Reading input from standard input

     Current dimensions of program PWSCF are:
     Max number of different atomic species (ntypx) = 10
     Max number of k-points (npk) =  40000
     Max angular momentum in pseudopotentials (lmaxx) =  3

     bravais-lattice index     =            0
     lattice parameter (alat)  =       1.8897  a.u.
     unit-cell volume          =     305.5804 (a.u.)^3
     number of atoms/cell      =            2
     number of atomic types    =            1
     number of electrons       =         8.00
     number of Kohn-Sham states=           38
     kinetic-energy cutoff     =      35.0000  Ry
     charge density cutoff     =     140.0000  Ry
     convergence threshold     =      1.0E-06
     mixing beta               =       0.7000
     number of iterations used =            8  plain     mixing
     Exchange-correlation      =  SLA  PW   PBX  PBC ( 1  4  3  4 0 0)

     celldm(1)=   1.889726  celldm(2)=   0.000000  celldm(3)=   0.000000
     celldm(4)=   0.000000  celldm(5)=   0.000000  celldm(6)=   0.000000

     crystal axes: (cart. coord. in units of alat)
               a(1) = (   0.000000   2.829000   2.829000 )
               a(2) = (   2.829000   0.000000   2.829000 )
               a(3) = (   2.829000   2.829000   0.000000 )

     reciprocal axes: (cart. coord. in units 2 pi/alat)
               b(1) = ( -0.176741  0.176741  0.176741 )
               b(2) = (  0.176741 -0.176741  0.176741 )
               b(3) = (  0.176741  0.176741 -0.176741 )

     PseudoPot. # 1 for Ge read from file:
     /shared/ESPRESSO/PSLIBRARY/1.0.0/pbe/PSEUDOPOTENTIALS/Ge.pbe-n-kjpaw_psl.1.0.0.UPF
     MD5 check sum: e6063357164f7ec107b9a3d2bf12fbbf
     Pseudo is Projector augmented-wave + core cor, Zval =  4.0
     Generated using "atomic" code by A. Dal Corso  (Quantum ESPRESSO distribution)
     Shape of augmentation charge: PSQ
     Using radial grid of 1207 points,  4 beta functions with:
                l(1) =   0
                l(2) =   0
                l(3) =   1
                l(4) =   1
     Q(r) pseudized with 0 coefficients

     atomic species   valence    mass     pseudopotential
        Ge             4.00    72.64000     Ge( 1.00)

     24 Sym. Ops. (no inversion) found
          (note: 24 additional sym.ops. were found but ignored
           their fractional translations are incommensurate with FFT grid)

   Cartesian axes

     site n.     atom                  positions (alat units)
         1           Ge  tau(   1) = (   0.0000000   0.0000000   0.0000000  )
         2           Ge  tau(   2) = (   1.4145000   1.4145000   1.4145000  )

     number of k points=    72  Fermi-Dirac smearing, width (Ry)=  0.0070
                       cart. coord. in units 2pi/alat
        k(    1) = (   0.0000000   0.0000000   0.0000000), wk =   0.0011574
        k(    2) = (   0.0147284   0.0147284  -0.0147284), wk =   0.0092593
        k(    3) = (   0.0294568   0.0294568  -0.0294568), wk =   0.0092593
        k(    4) = (   0.0441852   0.0441852  -0.0441852), wk =   0.0092593
        k(    5) = (   0.0589136   0.0589136  -0.0589136), wk =   0.0092593
        k(    6) = (   0.0736420   0.0736420  -0.0736420), wk =   0.0092593
        k(    7) = (  -0.0883704  -0.0883704   0.0883704), wk =   0.0046296
        k(    8) = (   0.0294568   0.0000000   0.0000000), wk =   0.0069444
        k(    9) = (   0.0441852   0.0147284  -0.0147284), wk =   0.0277778
        k(   10) = (   0.0589136   0.0294568  -0.0294568), wk =   0.0277778
        k(   11) = (   0.0736420   0.0441852  -0.0441852), wk =   0.0277778
        k(   12) = (   0.0883704   0.0589136  -0.0589136), wk =   0.0277778
        k(   13) = (  -0.0736420  -0.1030989   0.1030989), wk =   0.0277778
        k(   14) = (  -0.0589136  -0.0883704   0.0883704), wk =   0.0277778
        k(   15) = (  -0.0441852  -0.0736420   0.0736420), wk =   0.0277778
        k(   16) = (  -0.0294568  -0.0589136   0.0589136), wk =   0.0277778
        k(   17) = (  -0.0147284  -0.0441852   0.0441852), wk =   0.0277778
        k(   18) = (   0.0000000  -0.0294568   0.0294568), wk =   0.0138889
        k(   19) = (   0.0589136   0.0000000   0.0000000), wk =   0.0069444
        k(   20) = (   0.0736420   0.0147284  -0.0147284), wk =   0.0277778
        k(   21) = (   0.0883704   0.0294568  -0.0294568), wk =   0.0277778
        k(   22) = (   0.1030989   0.0441852  -0.0441852), wk =   0.0277778
        k(   23) = (  -0.0589136  -0.1178273   0.1178273), wk =   0.0277778
        k(   24) = (  -0.0441852  -0.1030989   0.1030989), wk =   0.0277778
        k(   25) = (  -0.0294568  -0.0883704   0.0883704), wk =   0.0277778
        k(   26) = (  -0.0147284  -0.0736420   0.0736420), wk =   0.0277778
        k(   27) = (   0.0000000  -0.0589136   0.0589136), wk =   0.0138889
        k(   28) = (   0.0883704   0.0000000   0.0000000), wk =   0.0069444
        k(   29) = (   0.1030989   0.0147284  -0.0147284), wk =   0.0277778
        k(   30) = (   0.1178273   0.0294568  -0.0294568), wk =   0.0277778
        k(   31) = (  -0.0441852  -0.1325557   0.1325557), wk =   0.0277778
        k(   32) = (  -0.0294568  -0.1178273   0.1178273), wk =   0.0277778
        k(   33) = (  -0.0147284  -0.1030989   0.1030989), wk =   0.0277778
        k(   34) = (   0.0000000  -0.0883704   0.0883704), wk =   0.0138889
        k(   35) = (   0.1178273   0.0000000   0.0000000), wk =   0.0069444
        k(   36) = (   0.1325557   0.0147284  -0.0147284), wk =   0.0277778
        k(   37) = (  -0.0294568  -0.1472841   0.1472841), wk =   0.0277778
        k(   38) = (  -0.0147284  -0.1325557   0.1325557), wk =   0.0277778
        k(   39) = (   0.0000000  -0.1178273   0.1178273), wk =   0.0138889
        k(   40) = (   0.1472841   0.0000000   0.0000000), wk =   0.0069444
        k(   41) = (  -0.0147284  -0.1620125   0.1620125), wk =   0.0277778
        k(   42) = (   0.0000000  -0.1472841   0.1472841), wk =   0.0138889
        k(   43) = (  -0.1767409   0.0000000   0.0000000), wk =   0.0034722
        k(   44) = (   0.0589136   0.0294568   0.0000000), wk =   0.0277778
        k(   45) = (   0.0736420   0.0441852  -0.0147284), wk =   0.0555556
        k(   46) = (   0.0883704   0.0589136  -0.0294568), wk =   0.0555556
        k(   47) = (  -0.0736420  -0.1030989   0.1325557), wk =   0.0555556
        k(   48) = (  -0.0589136  -0.0883704   0.1178273), wk =   0.0277778
        k(   49) = (   0.0883704   0.0294568   0.0000000), wk =   0.0277778
        k(   50) = (   0.1030989   0.0441852  -0.0147284), wk =   0.0555556
        k(   51) = (  -0.0589136  -0.1178273   0.1472841), wk =   0.0555556
        k(   52) = (  -0.0441852  -0.1030989   0.1325557), wk =   0.0555556
        k(   53) = (  -0.0294568  -0.0883704   0.1178273), wk =   0.0555556
        k(   54) = (  -0.0147284  -0.0736420   0.1030989), wk =   0.0555556
        k(   55) = (   0.0000000  -0.0589136   0.0883704), wk =   0.0277778
        k(   56) = (   0.1178273   0.0294568   0.0000000), wk =   0.0277778
        k(   57) = (  -0.0441852  -0.1325557   0.1620125), wk =   0.0555556
        k(   58) = (  -0.0294568  -0.1178273   0.1472841), wk =   0.0555556
        k(   59) = (  -0.0147284  -0.1030989   0.1325557), wk =   0.0555556
        k(   60) = (   0.0000000  -0.0883704   0.1178273), wk =   0.0277778
        k(   61) = (  -0.0294568  -0.1472841   0.1767409), wk =   0.0277778
        k(   62) = (  -0.0147284  -0.1325557   0.1620125), wk =   0.0555556
        k(   63) = (   0.0000000  -0.1178273   0.1472841), wk =   0.0277778
        k(   64) = (  -0.1767409   0.0294568   0.0000000), wk =   0.0138889
        k(   65) = (  -0.0589136  -0.1178273   0.1767409), wk =   0.0277778
        k(   66) = (  -0.0441852  -0.1030989   0.1620125), wk =   0.0555556
        k(   67) = (  -0.0294568  -0.0883704   0.1472841), wk =   0.0277778
        k(   68) = (  -0.0294568  -0.1178273   0.1767409), wk =   0.0277778
        k(   69) = (  -0.0147284  -0.1030989   0.1620125), wk =   0.0555556
        k(   70) = (   0.0000000  -0.0883704   0.1472841), wk =   0.0277778
        k(   71) = (  -0.1767409   0.0589136   0.0000000), wk =   0.0138889
        k(   72) = (  -0.1767409   0.0883704   0.0000000), wk =   0.0069444

     Initial potential from superposition of free atoms

     starting charge    7.99847, renormalised to    8.00000
     Starting wfc are    8 randomized atomic wfcs +   30 random wfc
     Checking if some PAW data can be deallocated...

     Self-consistent Calculation

     iteration #  1     ecut=    35.00 Ry     beta= 0.70
     Davidson diagonalization with overlap
     ethr =  1.00E-02,  avg # of iterations =  6.5

     Threshold (ethr) on eigenvalues was too large:
     Diagonalizing with lowered threshold

     Davidson diagonalization with overlap
     ethr =  4.02E-04,  avg # of iterations =  1.8

     total energy              =    -328.23412249 Ry
     Harris-Foulkes estimate   =    -328.24015260 Ry
     estimated scf accuracy    <       0.03220241 Ry

[...]

     total energy              =    -328.23502206 Ry
     Harris-Foulkes estimate   =    -328.23501508 Ry
     estimated scf accuracy    <       0.00001889 Ry

     iteration #  4     ecut=    35.00 Ry     beta= 0.70
     Davidson diagonalization with overlap
     ethr =  2.36E-07,  avg # of iterations =  2.4

     End of self-consistent calculation

          k = 0.0000 0.0000 0.0000 (  1067 PWs)   bands (ev):

    -6.9354   5.7995   5.7995   5.7995   5.9328   8.3778   8.3778   8.3778
    12.3874  15.2505  15.2505  16.8596  16.8596  16.8596  19.7181  30.9950
    30.9950  30.9950  31.5835  31.5835  31.5835  32.7056  32.7056  34.3285
    34.3285  34.3285  40.3408  43.1553  43.1554  43.1554  45.2931  45.2931
    45.5629  45.5629  46.1490  46.1490  46.1490  48.2401

[...]

          k =-0.0884-0.0884 0.0884 (  1068 PWs)   bands (ev):

[...]

          k = 0.0000-0.0884 0.1473 (  1073 PWs)   bands (ev):

[...]

          k =-0.1767 0.0884 0.0000 (  1084 PWs)   bands (ev):

    -2.9800  -2.9798   1.9082   1.9082  10.1984  10.1985  10.5367  10.5367
    16.9307  16.9308  19.0339  19.0339  22.6559  22.6559  23.3274  23.3275
    25.9611  25.9612  27.7608  27.7609  29.6362  29.6362  32.5867  32.5868
    32.7743  32.7743  32.9299  32.9300  39.7874  39.7875  40.9901  40.9901
    43.7092  43.7092  45.9796  45.9797  48.4548  48.4550

     the Fermi energy is     5.8943 ev

!    total energy              =    -328.23502382 Ry
     Harris-Foulkes estimate   =    -328.23502341 Ry
     estimated scf accuracy    <       0.00000022 Ry

     total all-electron energy =     -8395.999792 Ry

     The total energy is the sum of the following terms:

     one-electron contribution =       5.54353420 Ry
     hartree contribution      =       1.15312940 Ry
     xc contribution           =     -13.26864516 Ry
     ewald contribution        =     -16.12199791 Ry
     one-center paw contrib.   =    -305.54090373 Ry
     smearing contrib. (-TS)   =      -0.00014062 Ry

     convergence has been achieved in   4 iterations

     Forces acting on atoms (cartesian axes, Ry/au):

     atom    1 type  1   force =     0.00000000    0.00000000    0.00000000
     atom    2 type  1   force =     0.00000000    0.00000000    0.00000000

     Total force =     0.000000     Total SCF correction =     0.000000

     Computing stress (Cartesian axis) and pressure

          total   stress  (Ry/bohr**3)                   (kbar)     P=   40.58
   0.00027589   0.00000000   0.00000000         40.58      0.00      0.00
   0.00000000   0.00027589   0.00000000          0.00     40.58      0.00
   0.00000000   0.00000000   0.00027589          0.00      0.00     40.58

     Writing output data file scf.save

     General routines

     Parallel routines

   This run was terminated on:  21:50:18  10Sep2020

   JOB DONE.