     Program PWSCF v.6.2 starts on 10Jun2020 at  5:35: 0

     R & G space division:  proc/nbgrp/npool/nimage =      16
     Waiting for input...
     Reading input from standard input
     Message from routine read_cards :
     DEPRECATED: no units specified in CELL_PARAMETERS card

     Current dimensions of program PWSCF are:
     Max number of different atomic species (ntypx) = 10
     Max number of k-points (npk) =  40000
     Max angular momentum in pseudopotentials (lmaxx) =  3

     bravais-lattice index     =            0
     lattice parameter (alat)  =       1.8897  a.u.
     unit-cell volume          =     304.2860 (a.u.)^3
     number of atoms/cell      =            2
     number of atomic types    =            1
     number of electrons       =         8.00
     number of Kohn-Sham states=            8
     kinetic-energy cutoff     =      50.0000  Ry
     charge density cutoff     =     200.0000  Ry
     convergence threshold     =      1.0E-06
     mixing beta               =       0.7000
     number of iterations used =            8  plain     mixing
     Exchange-correlation      =  SLA  PW   PBX  PBC ( 1  4  3  4 0 0)

     celldm(1)=   1.889726  celldm(2)=   0.000000  celldm(3)=   0.000000
     celldm(4)=   0.000000  celldm(5)=   0.000000  celldm(6)=   0.000000

     crystal axes: (cart. coord. in units of alat)
               a(1) = (   0.000000   2.825000   2.825000 )
               a(2) = (   2.825000   0.000000   2.825000 )
               a(3) = (   2.825000   2.825000   0.000000 )

     reciprocal axes: (cart. coord. in units 2 pi/alat)
               b(1) = ( -0.176991  0.176991  0.176991 )
               b(2) = (  0.176991 -0.176991  0.176991 )
               b(3) = (  0.176991  0.176991 -0.176991 )

     PseudoPot. # 1 for Ge read from file:
     /shared/ESPRESSO/PSLIBRARY/1.0.0/pbe/PSEUDOPOTENTIALS/Ge.pbe-n-kjpaw_psl.1.0.0.UPF
     MD5 check sum: e6063357164f7ec107b9a3d2bf12fbbf
     Pseudo is Projector augmented-wave + core cor, Zval =  4.0
     Generated using "atomic" code by A. Dal Corso  (Quantum ESPRESSO distribution)
     Shape of augmentation charge: PSQ
     Using radial grid of 1207 points,  4 beta functions with:
                l(1) =   0
                l(2) =   0
                l(3) =   1
                l(4) =   1
     Q(r) pseudized with 0 coefficients

     atomic species   valence    mass     pseudopotential
        Ge             4.00    72.63000     Ge( 1.00)

     48 Sym. Ops., with inversion, found (24 have fractional translation)

   Cartesian axes

     site n.     atom                  positions (alat units)
         1           Ge  tau(   1) = (   0.0000000   0.0000000   0.0000000  )
         2           Ge  tau(   2) = (   1.4125000   1.4125000   1.4125000  )

     number of k points=    10  Fermi-Dirac smearing, width (Ry)=  0.0070
                       cart. coord. in units 2pi/alat
        k(    1) = (   0.0000000   0.0000000   0.0000000), wk =   0.0160000
        k(    2) = (   0.0353982   0.0353982  -0.0353982), wk =   0.1280000
        k(    3) = (   0.0707965   0.0707965  -0.0707965), wk =   0.1280000
        k(    4) = (   0.0707965   0.0000000   0.0000000), wk =   0.0960000
        k(    5) = (   0.1061947   0.0353982  -0.0353982), wk =   0.3840000
        k(    6) = (  -0.0353982  -0.1061947   0.1061947), wk =   0.3840000
        k(    7) = (   0.0000000  -0.0707965   0.0707965), wk =   0.1920000
        k(    8) = (   0.1415929   0.0000000   0.0000000), wk =   0.0960000
        k(    9) = (   0.0000000  -0.1415929   0.1415929), wk =   0.1920000
        k(   10) = (  -0.0353982  -0.1061947   0.1769912), wk =   0.3840000

     Initial potential from superposition of free atoms

     starting charge    7.99847, renormalised to    8.00000
     Starting wfc are    8 randomized atomic wfcs
     Checking if some PAW data can be deallocated...

     Self-consistent Calculation

     iteration #  1     ecut=    50.00 Ry     beta= 0.70
     Davidson diagonalization with overlap
     ethr =  1.00E-02,  avg # of iterations =  2.9

     Threshold (ethr) on eigenvalues was too large:
     Diagonalizing with lowered threshold

     Davidson diagonalization with overlap
     ethr =  4.28E-04,  avg # of iterations =  1.6

     total energy              =    -328.22644495 Ry
     Harris-Foulkes estimate   =    -328.23297351 Ry
     estimated scf accuracy    <       0.03432861 Ry

[...]

     total energy              =    -328.22744233 Ry
     Harris-Foulkes estimate   =    -328.22743724 Ry
     estimated scf accuracy    <       0.00001809 Ry

     iteration #  4     ecut=    50.00 Ry     beta= 0.70
     Davidson diagonalization with overlap
     ethr =  2.26E-07,  avg # of iterations =  2.4

     End of self-consistent calculation

          k = 0.0000 0.0000 0.0000 (  1837 PWs)   bands (ev):

    -6.9058   5.8631   5.8631   5.8631   6.0391   8.4352   8.4352   8.4352

[...]

          k =-0.0354-0.1062 0.1062 (  1810 PWs)   bands (ev):

[...]

          k = 0.0000-0.1416 0.1416 (  1816 PWs)   bands (ev):

[...]

          k =-0.0354-0.1062 0.1770 (  1812 PWs)   bands (ev):

    -4.0098  -1.8383   1.7888   2.7611   9.2405   9.4904  10.2200  13.4045

     the Fermi energy is     5.9381 ev

!    total energy              =    -328.22744697 Ry
     Harris-Foulkes estimate   =    -328.22744674 Ry
     estimated scf accuracy    <       0.00000016 Ry

     total all-electron energy =     -8395.992215 Ry

     The total energy is the sum of the following terms:

     one-electron contribution =       5.57722513 Ry
     hartree contribution      =       1.16050324 Ry
     xc contribution           =     -13.27815751 Ry
     ewald contribution        =     -16.14482554 Ry
     one-center paw contrib.   =    -305.54162935 Ry
     smearing contrib. (-TS)   =      -0.00056295 Ry

     convergence has been achieved in   4 iterations

     Writing output data file scf.save

     General routines

     Parallel routines

   This run was terminated on:   5:39:53  10Jun2020

   JOB DONE.